*Heading
** Ball-drop impact on a 100 x 100 x 2 mm coupon, 2 plies, cohesive between
** them, generated by make_impact_wave_inp.py. Impact stage only.
** In-plane 25 mm: set by ten elements per A0 wavelength at 100 kHz, which
** is the rule the validated wave models use, so one mesh serves both stages.
*Preprint, echo=NO, model=NO, history=NO, contact=NO
*Node
1, 0, 0, 0
2, 0.025, 0, 0
3, 0.05, 0, 0
4, 0.075, 0, 0
5, 0.1, 0, 0
6, 0, 0.025, 0
7, 0.025, 0.025, 0
8, 0.05, 0.025, 0
9, 0.075, 0.025, 0
10, 0.1, 0.025, 0
11, 0, 0.05, 0
12, 0.025, 0.05, 0
13, 0.05, 0.05, 0
14, 0.075, 0.05, 0
15, 0.1, 0.05, 0
16, 0, 0.075, 0
17, 0.025, 0.075, 0
18, 0.05, 0.075, 0
19, 0.075, 0.075, 0
20, 0.1, 0.075, 0
21, 0, 0.1, 0
22, 0.025, 0.1, 0
23, 0.05, 0.1, 0
24, 0.075, 0.1, 0
25, 0.1, 0.1, 0
26, 0, 0, 0.001
27, 0.025, 0, 0.001
28, 0.05, 0, 0.001
29, 0.075, 0, 0.001
30, 0.1, 0, 0.001
31, 0, 0.025, 0.001
32, 0.025, 0.025, 0.001
33, 0.05, 0.025, 0.001
34, 0.075, 0.025, 0.001
35, 0.1, 0.025, 0.001
36, 0, 0.05, 0.001
37, 0.025, 0.05, 0.001
38, 0.05, 0.05, 0.001
39, 0.075, 0.05, 0.001
40, 0.1, 0.05, 0.001
41, 0, 0.075, 0.001
42, 0.025, 0.075, 0.001
43, 0.05, 0.075, 0.001
44, 0.075, 0.075, 0.001
45, 0.1, 0.075, 0.001
46, 0, 0.1, 0.001
47, 0.025, 0.1, 0.001
48, 0.05, 0.1, 0.001
49, 0.075, 0.1, 0.001
50, 0.1, 0.1, 0.001
51, 0, 0, 0.001
52, 0.025, 0, 0.001
53, 0.05, 0, 0.001
54, 0.075, 0, 0.001
55, 0.1, 0, 0.001
56, 0, 0.025, 0.001
57, 0.025, 0.025, 0.001
58, 0.05, 0.025, 0.001
59, 0.075, 0.025, 0.001
60, 0.1, 0.025, 0.001
61, 0, 0.05, 0.001
62, 0.025, 0.05, 0.001
63, 0.05, 0.05, 0.001
64, 0.075, 0.05, 0.001
65, 0.1, 0.05, 0.001
66, 0, 0.075, 0.001
67, 0.025, 0.075, 0.001
68, 0.05, 0.075, 0.001
69, 0.075, 0.075, 0.001
70, 0.1, 0.075, 0.001
71, 0, 0.1, 0.001
72, 0.025, 0.1, 0.001
73, 0.05, 0.1, 0.001
74, 0.075, 0.1, 0.001
75, 0.1, 0.1, 0.001
76, 0, 0, 0.002
77, 0.025, 0, 0.002
78, 0.05, 0, 0.002
79, 0.075, 0, 0.002
80, 0.1, 0, 0.002
81, 0, 0.025, 0.002
82, 0.025, 0.025, 0.002
83, 0.05, 0.025, 0.002
84, 0.075, 0.025, 0.002
85, 0.1, 0.025, 0.002
86, 0, 0.05, 0.002
87, 0.025, 0.05, 0.002
88, 0.05, 0.05, 0.002
89, 0.075, 0.05, 0.002
90, 0.1, 0.05, 0.002
91, 0, 0.075, 0.002
92, 0.025, 0.075, 0.002
93, 0.05, 0.075, 0.002
94, 0.075, 0.075, 0.002
95, 0.1, 0.075, 0.002
96, 0, 0.1, 0.002
97, 0.025, 0.1, 0.002
98, 0.05, 0.1, 0.002
99, 0.075, 0.1, 0.002
100, 0.1, 0.1, 0.002
101, 0.05, 0.05, 0.002
102, 0.05013959799, 0.05, 0.002002436692
103, 0.05013940667, 0.05000730599, 0.002002436692
104, 0.05013883325, 0.05001459196, 0.002002436692
105, 0.0501378793, 0.05002183794, 0.002002436692
106, 0.05013654744, 0.05002902405, 0.002002436692
107, 0.0501348413, 0.05003613062, 0.002002436692
108, 0.05013276558, 0.05004313815, 0.002002436692
109, 0.05013032595, 0.05005002744, 0.002002436692
110, 0.05012752911, 0.05005677962, 0.002002436692
111, 0.05012438272, 0.05006337616, 0.002002436692
112, 0.0501208954, 0.05006979899, 0.002002436692
113, 0.05011707672, 0.05007603051, 0.002002436692
114, 0.05011293714, 0.05008205364, 0.002002436692
115, 0.05010848801, 0.05008785186, 0.002002436692
116, 0.05010374152, 0.05009340929, 0.002002436692
117, 0.05009871068, 0.05009871068, 0.002002436692
118, 0.05009340929, 0.05010374152, 0.002002436692
119, 0.05008785186, 0.05010848801, 0.002002436692
120, 0.05008205364, 0.05011293714, 0.002002436692
121, 0.05007603051, 0.05011707672, 0.002002436692
122, 0.05006979899, 0.0501208954, 0.002002436692
123, 0.05006337616, 0.05012438272, 0.002002436692
124, 0.05005677962, 0.05012752911, 0.002002436692
125, 0.05005002744, 0.05013032595, 0.002002436692
126, 0.05004313815, 0.05013276558, 0.002002436692
127, 0.05003613062, 0.0501348413, 0.002002436692
128, 0.05002902405, 0.05013654744, 0.002002436692
129, 0.05002183794, 0.0501378793, 0.002002436692
130, 0.05001459196, 0.05013883325, 0.002002436692
131, 0.05000730599, 0.05013940667, 0.002002436692
132, 0.05, 0.05013959799, 0.002002436692
133, 0.04999269401, 0.05013940667, 0.002002436692
134, 0.04998540804, 0.05013883325, 0.002002436692
135, 0.04997816206, 0.0501378793, 0.002002436692
136, 0.04997097595, 0.05013654744, 0.002002436692
137, 0.04996386938, 0.0501348413, 0.002002436692
138, 0.04995686185, 0.05013276558, 0.002002436692
139, 0.04994997256, 0.05013032595, 0.002002436692
140, 0.04994322038, 0.05012752911, 0.002002436692
141, 0.04993662384, 0.05012438272, 0.002002436692
142, 0.04993020101, 0.0501208954, 0.002002436692
143, 0.04992396949, 0.05011707672, 0.002002436692
144, 0.04991794636, 0.05011293714, 0.002002436692
145, 0.04991214814, 0.05010848801, 0.002002436692
146, 0.04990659071, 0.05010374152, 0.002002436692
147, 0.04990128932, 0.05009871068, 0.002002436692
148, 0.04989625848, 0.05009340929, 0.002002436692
149, 0.04989151199, 0.05008785186, 0.002002436692
150, 0.04988706286, 0.05008205364, 0.002002436692
151, 0.04988292328, 0.05007603051, 0.002002436692
152, 0.0498791046, 0.05006979899, 0.002002436692
153, 0.04987561728, 0.05006337616, 0.002002436692
154, 0.04987247089, 0.05005677962, 0.002002436692
155, 0.04986967405, 0.05005002744, 0.002002436692
156, 0.04986723442, 0.05004313815, 0.002002436692
157, 0.0498651587, 0.05003613062, 0.002002436692
158, 0.04986345256, 0.05002902405, 0.002002436692
159, 0.0498621207, 0.05002183794, 0.002002436692
160, 0.04986116675, 0.05001459196, 0.002002436692
161, 0.04986059333, 0.05000730599, 0.002002436692
162, 0.04986040201, 0.05, 0.002002436692
163, 0.04986059333, 0.04999269401, 0.002002436692
164, 0.04986116675, 0.04998540804, 0.002002436692
165, 0.0498621207, 0.04997816206, 0.002002436692
166, 0.04986345256, 0.04997097595, 0.002002436692
167, 0.0498651587, 0.04996386938, 0.002002436692
168, 0.04986723442, 0.04995686185, 0.002002436692
169, 0.04986967405, 0.04994997256, 0.002002436692
170, 0.04987247089, 0.04994322038, 0.002002436692
171, 0.04987561728, 0.04993662384, 0.002002436692
172, 0.0498791046, 0.04993020101, 0.002002436692
173, 0.04988292328, 0.04992396949, 0.002002436692
174, 0.04988706286, 0.04991794636, 0.002002436692
175, 0.04989151199, 0.04991214814, 0.002002436692
176, 0.04989625848, 0.04990659071, 0.002002436692
177, 0.04990128932, 0.04990128932, 0.002002436692
178, 0.04990659071, 0.04989625848, 0.002002436692
179, 0.04991214814, 0.04989151199, 0.002002436692
180, 0.04991794636, 0.04988706286, 0.002002436692
181, 0.04992396949, 0.04988292328, 0.002002436692
182, 0.04993020101, 0.0498791046, 0.002002436692
183, 0.04993662384, 0.04987561728, 0.002002436692
184, 0.04994322038, 0.04987247089, 0.002002436692
185, 0.04994997256, 0.04986967405, 0.002002436692
186, 0.04995686185, 0.04986723442, 0.002002436692
187, 0.04996386938, 0.0498651587, 0.002002436692
188, 0.04997097595, 0.04986345256, 0.002002436692
189, 0.04997816206, 0.0498621207, 0.002002436692
190, 0.04998540804, 0.04986116675, 0.002002436692
191, 0.04999269401, 0.04986059333, 0.002002436692
192, 0.05, 0.04986040201, 0.002002436692
193, 0.05000730599, 0.04986059333, 0.002002436692
194, 0.05001459196, 0.04986116675, 0.002002436692
195, 0.05002183794, 0.0498621207, 0.002002436692
196, 0.05002902405, 0.04986345256, 0.002002436692
197, 0.05003613062, 0.0498651587, 0.002002436692
198, 0.05004313815, 0.04986723442, 0.002002436692
199, 0.05005002744, 0.04986967405, 0.002002436692
200, 0.05005677962, 0.04987247089, 0.002002436692
201, 0.05006337616, 0.04987561728, 0.002002436692
202, 0.05006979899, 0.0498791046, 0.002002436692
203, 0.05007603051, 0.04988292328, 0.002002436692
204, 0.05008205364, 0.04988706286, 0.002002436692
205, 0.05008785186, 0.04989151199, 0.002002436692
206, 0.05009340929, 0.04989625848, 0.002002436692
207, 0.05009871068, 0.04990128932, 0.002002436692
208, 0.05010374152, 0.04990659071, 0.002002436692
209, 0.05010848801, 0.04991214814, 0.002002436692
210, 0.05011293714, 0.04991794636, 0.002002436692
211, 0.05011707672, 0.04992396949, 0.002002436692
212, 0.0501208954, 0.04993020101, 0.002002436692
213, 0.05012438272, 0.04993662384, 0.002002436692
214, 0.05012752911, 0.04994322038, 0.002002436692
215, 0.05013032595, 0.04994997256, 0.002002436692
216, 0.05013276558, 0.04995686185, 0.002002436692
217, 0.0501348413, 0.04996386938, 0.002002436692
218, 0.05013654744, 0.04997097595, 0.002002436692
219, 0.0501378793, 0.04997816206, 0.002002436692
220, 0.05013883325, 0.04998540804, 0.002002436692
221, 0.05013940667, 0.04999269401, 0.002002436692
222, 0.05027902589, 0.05, 0.002009743799
223, 0.0502786435, 0.05001460309, 0.002009743799
224, 0.05027749736, 0.05002916615, 0.002009743799
225, 0.05027559062, 0.05004364927, 0.002009743799
226, 0.05027292851, 0.05005801275, 0.002009743799
227, 0.05026951832, 0.05007221722, 0.002009743799
228, 0.0502653694, 0.05008622374, 0.002009743799
229, 0.05026049311, 0.05009999394, 0.002009743799
230, 0.05025490284, 0.05011349006, 0.002009743799
231, 0.05024861389, 0.05012667511, 0.002009743799
232, 0.05024164351, 0.05013951295, 0.002009743799
233, 0.05023401081, 0.05015196839, 0.002009743799
234, 0.05022573669, 0.05016400731, 0.002009743799
235, 0.05021684385, 0.05017559669, 0.002009743799
236, 0.05020735665, 0.05018670477, 0.002009743799
237, 0.0501973011, 0.0501973011, 0.002009743799
238, 0.05018670477, 0.05020735665, 0.002009743799
239, 0.05017559669, 0.05021684385, 0.002009743799
240, 0.05016400731, 0.05022573669, 0.002009743799
241, 0.05015196839, 0.05023401081, 0.002009743799
242, 0.05013951295, 0.05024164351, 0.002009743799
243, 0.05012667511, 0.05024861389, 0.002009743799
244, 0.05011349006, 0.05025490284, 0.002009743799
245, 0.05009999394, 0.05026049311, 0.002009743799
246, 0.05008622374, 0.0502653694, 0.002009743799
247, 0.05007221722, 0.05026951832, 0.002009743799
248, 0.05005801275, 0.05027292851, 0.002009743799
249, 0.05004364927, 0.05027559062, 0.002009743799
250, 0.05002916615, 0.05027749736, 0.002009743799
251, 0.05001460309, 0.0502786435, 0.002009743799
252, 0.05, 0.05027902589, 0.002009743799
253, 0.04998539691, 0.0502786435, 0.002009743799
254, 0.04997083385, 0.05027749736, 0.002009743799
255, 0.04995635073, 0.05027559062, 0.002009743799
256, 0.04994198725, 0.05027292851, 0.002009743799
257, 0.04992778278, 0.05026951832, 0.002009743799
258, 0.04991377626, 0.0502653694, 0.002009743799
259, 0.04990000606, 0.05026049311, 0.002009743799
260, 0.04988650994, 0.05025490284, 0.002009743799
261, 0.04987332489, 0.05024861389, 0.002009743799
262, 0.04986048705, 0.05024164351, 0.002009743799
263, 0.04984803161, 0.05023401081, 0.002009743799
264, 0.04983599269, 0.05022573669, 0.002009743799
265, 0.04982440331, 0.05021684385, 0.002009743799
266, 0.04981329523, 0.05020735665, 0.002009743799
267, 0.0498026989, 0.0501973011, 0.002009743799
268, 0.04979264335, 0.05018670477, 0.002009743799
269, 0.04978315615, 0.05017559669, 0.002009743799
270, 0.04977426331, 0.05016400731, 0.002009743799
271, 0.04976598919, 0.05015196839, 0.002009743799
272, 0.04975835649, 0.05013951295, 0.002009743799
273, 0.04975138611, 0.05012667511, 0.002009743799
274, 0.04974509716, 0.05011349006, 0.002009743799
275, 0.04973950689, 0.05009999394, 0.002009743799
276, 0.0497346306, 0.05008622374, 0.002009743799
277, 0.04973048168, 0.05007221722, 0.002009743799
278, 0.04972707149, 0.05005801275, 0.002009743799
279, 0.04972440938, 0.05004364927, 0.002009743799
280, 0.04972250264, 0.05002916615, 0.002009743799
281, 0.0497213565, 0.05001460309, 0.002009743799
282, 0.04972097411, 0.05, 0.002009743799
283, 0.0497213565, 0.04998539691, 0.002009743799
284, 0.04972250264, 0.04997083385, 0.002009743799
285, 0.04972440938, 0.04995635073, 0.002009743799
286, 0.04972707149, 0.04994198725, 0.002009743799
287, 0.04973048168, 0.04992778278, 0.002009743799
288, 0.0497346306, 0.04991377626, 0.002009743799
289, 0.04973950689, 0.04990000606, 0.002009743799
290, 0.04974509716, 0.04988650994, 0.002009743799
291, 0.04975138611, 0.04987332489, 0.002009743799
292, 0.04975835649, 0.04986048705, 0.002009743799
293, 0.04976598919, 0.04984803161, 0.002009743799
294, 0.04977426331, 0.04983599269, 0.002009743799
295, 0.04978315615, 0.04982440331, 0.002009743799
296, 0.04979264335, 0.04981329523, 0.002009743799
297, 0.0498026989, 0.0498026989, 0.002009743799
298, 0.04981329523, 0.04979264335, 0.002009743799
299, 0.04982440331, 0.04978315615, 0.002009743799
300, 0.04983599269, 0.04977426331, 0.002009743799
301, 0.04984803161, 0.04976598919, 0.002009743799
302, 0.04986048705, 0.04975835649, 0.002009743799
303, 0.04987332489, 0.04975138611, 0.002009743799
304, 0.04988650994, 0.04974509716, 0.002009743799
305, 0.04990000606, 0.04973950689, 0.002009743799
306, 0.04991377626, 0.0497346306, 0.002009743799
307, 0.04992778278, 0.04973048168, 0.002009743799
308, 0.04994198725, 0.04972707149, 0.002009743799
309, 0.04995635073, 0.04972440938, 0.002009743799
310, 0.04997083385, 0.04972250264, 0.002009743799
311, 0.04998539691, 0.0497213565, 0.002009743799
312, 0.05, 0.04972097411, 0.002009743799
313, 0.05001460309, 0.0497213565, 0.002009743799
314, 0.05002916615, 0.04972250264, 0.002009743799
315, 0.05004364927, 0.04972440938, 0.002009743799
316, 0.05005801275, 0.04972707149, 0.002009743799
317, 0.05007221722, 0.04973048168, 0.002009743799
318, 0.05008622374, 0.0497346306, 0.002009743799
319, 0.05009999394, 0.04973950689, 0.002009743799
320, 0.05011349006, 0.04974509716, 0.002009743799
321, 0.05012667511, 0.04975138611, 0.002009743799
322, 0.05013951295, 0.04975835649, 0.002009743799
323, 0.05015196839, 0.04976598919, 0.002009743799
324, 0.05016400731, 0.04977426331, 0.002009743799
325, 0.05017559669, 0.04978315615, 0.002009743799
326, 0.05018670477, 0.04979264335, 0.002009743799
327, 0.0501973011, 0.0498026989, 0.002009743799
328, 0.05020735665, 0.04981329523, 0.002009743799
329, 0.05021684385, 0.04982440331, 0.002009743799
330, 0.05022573669, 0.04983599269, 0.002009743799
331, 0.05023401081, 0.04984803161, 0.002009743799
332, 0.05024164351, 0.04986048705, 0.002009743799
333, 0.05024861389, 0.04987332489, 0.002009743799
334, 0.05025490284, 0.04988650994, 0.002009743799
335, 0.05026049311, 0.04990000606, 0.002009743799
336, 0.0502653694, 0.04991377626, 0.002009743799
337, 0.05026951832, 0.04992778278, 0.002009743799
338, 0.05027292851, 0.04994198725, 0.002009743799
339, 0.05027559062, 0.04995635073, 0.002009743799
340, 0.05027749736, 0.04997083385, 0.002009743799
341, 0.0502786435, 0.04998539691, 0.002009743799
342, 0.05041811385, 0.05, 0.002021912419
343, 0.05041754084, 0.05002188239, 0.002021912419
344, 0.05041582338, 0.0500437048, 0.002021912419
345, 0.05041296618, 0.05006540742, 0.002021912419
346, 0.05040897706, 0.05008693076, 0.002021912419
347, 0.05040386697, 0.05010821583, 0.002021912419
348, 0.0503976499, 0.05012920429, 0.002021912419
349, 0.05039034291, 0.0501498386, 0.002021912419
350, 0.05038196601, 0.05017006223, 0.002021912419
351, 0.05037254217, 0.05018981972, 0.002021912419
352, 0.05036209722, 0.05020905693, 0.002021912419
353, 0.05035065978, 0.05022772113, 0.002021912419
354, 0.05033826121, 0.05024576116, 0.002021912419
355, 0.05032493549, 0.05026312757, 0.002021912419
356, 0.05031071915, 0.05027977278, 0.002021912419
357, 0.05029565114, 0.05029565114, 0.002021912419
358, 0.05027977278, 0.05031071915, 0.002021912419
359, 0.05026312757, 0.05032493549, 0.002021912419
360, 0.05024576116, 0.05033826121, 0.002021912419
361, 0.05022772113, 0.05035065978, 0.002021912419
362, 0.05020905693, 0.05036209722, 0.002021912419
363, 0.05018981972, 0.05037254217, 0.002021912419
364, 0.05017006223, 0.05038196601, 0.002021912419
365, 0.0501498386, 0.05039034291, 0.002021912419
366, 0.05012920429, 0.0503976499, 0.002021912419
367, 0.05010821583, 0.05040386697, 0.002021912419
368, 0.05008693076, 0.05040897706, 0.002021912419
369, 0.05006540742, 0.05041296618, 0.002021912419
370, 0.0500437048, 0.05041582338, 0.002021912419
371, 0.05002188239, 0.05041754084, 0.002021912419
372, 0.05, 0.05041811385, 0.002021912419
373, 0.04997811761, 0.05041754084, 0.002021912419
374, 0.0499562952, 0.05041582338, 0.002021912419
375, 0.04993459258, 0.05041296618, 0.002021912419
376, 0.04991306924, 0.05040897706, 0.002021912419
377, 0.04989178417, 0.05040386697, 0.002021912419
378, 0.04987079571, 0.0503976499, 0.002021912419
379, 0.0498501614, 0.05039034291, 0.002021912419
380, 0.04982993777, 0.05038196601, 0.002021912419
381, 0.04981018028, 0.05037254217, 0.002021912419
382, 0.04979094307, 0.05036209722, 0.002021912419
383, 0.04977227887, 0.05035065978, 0.002021912419
384, 0.04975423884, 0.05033826121, 0.002021912419
385, 0.04973687243, 0.05032493549, 0.002021912419
386, 0.04972022722, 0.05031071915, 0.002021912419
387, 0.04970434886, 0.05029565114, 0.002021912419
388, 0.04968928085, 0.05027977278, 0.002021912419
389, 0.04967506451, 0.05026312757, 0.002021912419
390, 0.04966173879, 0.05024576116, 0.002021912419
391, 0.04964934022, 0.05022772113, 0.002021912419
392, 0.04963790278, 0.05020905693, 0.002021912419
393, 0.04962745783, 0.05018981972, 0.002021912419
394, 0.04961803399, 0.05017006223, 0.002021912419
395, 0.04960965709, 0.0501498386, 0.002021912419
396, 0.0496023501, 0.05012920429, 0.002021912419
397, 0.04959613303, 0.05010821583, 0.002021912419
398, 0.04959102294, 0.05008693076, 0.002021912419
399, 0.04958703382, 0.05006540742, 0.002021912419
400, 0.04958417662, 0.0500437048, 0.002021912419
401, 0.04958245916, 0.05002188239, 0.002021912419
402, 0.04958188615, 0.05, 0.002021912419
403, 0.04958245916, 0.04997811761, 0.002021912419
404, 0.04958417662, 0.0499562952, 0.002021912419
405, 0.04958703382, 0.04993459258, 0.002021912419
406, 0.04959102294, 0.04991306924, 0.002021912419
407, 0.04959613303, 0.04989178417, 0.002021912419
408, 0.0496023501, 0.04987079571, 0.002021912419
409, 0.04960965709, 0.0498501614, 0.002021912419
410, 0.04961803399, 0.04982993777, 0.002021912419
411, 0.04962745783, 0.04981018028, 0.002021912419
412, 0.04963790278, 0.04979094307, 0.002021912419
413, 0.04964934022, 0.04977227887, 0.002021912419
414, 0.04966173879, 0.04975423884, 0.002021912419
415, 0.04967506451, 0.04973687243, 0.002021912419
416, 0.04968928085, 0.04972022722, 0.002021912419
417, 0.04970434886, 0.04970434886, 0.002021912419
418, 0.04972022722, 0.04968928085, 0.002021912419
419, 0.04973687243, 0.04967506451, 0.002021912419
420, 0.04975423884, 0.04966173879, 0.002021912419
421, 0.04977227887, 0.04964934022, 0.002021912419
422, 0.04979094307, 0.04963790278, 0.002021912419
423, 0.04981018028, 0.04962745783, 0.002021912419
424, 0.04982993777, 0.04961803399, 0.002021912419
425, 0.0498501614, 0.04960965709, 0.002021912419
426, 0.04987079571, 0.0496023501, 0.002021912419
427, 0.04989178417, 0.04959613303, 0.002021912419
428, 0.04991306924, 0.04959102294, 0.002021912419
429, 0.04993459258, 0.04958703382, 0.002021912419
430, 0.0499562952, 0.04958417662, 0.002021912419
431, 0.04997811761, 0.04958245916, 0.002021912419
432, 0.05, 0.04958188615, 0.002021912419
433, 0.05002188239, 0.04958245916, 0.002021912419
434, 0.0500437048, 0.04958417662, 0.002021912419
435, 0.05006540742, 0.04958703382, 0.002021912419
436, 0.05008693076, 0.04959102294, 0.002021912419
437, 0.05010821583, 0.04959613303, 0.002021912419
438, 0.05012920429, 0.0496023501, 0.002021912419
439, 0.0501498386, 0.04960965709, 0.002021912419
440, 0.05017006223, 0.04961803399, 0.002021912419
441, 0.05018981972, 0.04962745783, 0.002021912419
442, 0.05020905693, 0.04963790278, 0.002021912419
443, 0.05022772113, 0.04964934022, 0.002021912419
444, 0.05024576116, 0.04966173879, 0.002021912419
445, 0.05026312757, 0.04967506451, 0.002021912419
446, 0.05027977278, 0.04968928085, 0.002021912419
447, 0.05029565114, 0.04970434886, 0.002021912419
448, 0.05031071915, 0.04972022722, 0.002021912419
449, 0.05032493549, 0.04973687243, 0.002021912419
450, 0.05033826121, 0.04975423884, 0.002021912419
451, 0.05035065978, 0.04977227887, 0.002021912419
452, 0.05036209722, 0.04979094307, 0.002021912419
453, 0.05037254217, 0.04981018028, 0.002021912419
454, 0.05038196601, 0.04982993777, 0.002021912419
455, 0.05039034291, 0.0498501614, 0.002021912419
456, 0.0503976499, 0.04987079571, 0.002021912419
457, 0.05040386697, 0.04989178417, 0.002021912419
458, 0.05040897706, 0.04991306924, 0.002021912419
459, 0.05041296618, 0.04993459258, 0.002021912419
460, 0.05041582338, 0.0499562952, 0.002021912419
461, 0.05041754084, 0.04997811761, 0.002021912419
462, 0.0505566924, 0.05, 0.002038927725
463, 0.05055592948, 0.05002913503, 0.002038927725
464, 0.05055364278, 0.0500581902, 0.002038927725
465, 0.0505498386, 0.05008708588, 0.002038927725
466, 0.05054452734, 0.05011574286, 0.002038927725
467, 0.05053772357, 0.0501440826, 0.002038927725
468, 0.05052944594, 0.05017202741, 0.002038927725
469, 0.05051971713, 0.05019950072, 0.002038927725
470, 0.05050856382, 0.0502264272, 0.002038927725
471, 0.05049601656, 0.05025273306, 0.002038927725
472, 0.05048210976, 0.0502783462, 0.002038927725
473, 0.05046688153, 0.05030319641, 0.002038927725
474, 0.05045037362, 0.05032721559, 0.002038927725
475, 0.05043263125, 0.05035033788, 0.002038927725
476, 0.05041370308, 0.05037249993, 0.002038927725
477, 0.05039364097, 0.05039364097, 0.002038927725
478, 0.05037249993, 0.05041370308, 0.002038927725
479, 0.05035033788, 0.05043263125, 0.002038927725
480, 0.05032721559, 0.05045037362, 0.002038927725
481, 0.05030319641, 0.05046688153, 0.002038927725
482, 0.0502783462, 0.05048210976, 0.002038927725
483, 0.05025273306, 0.05049601656, 0.002038927725
484, 0.0502264272, 0.05050856382, 0.002038927725
485, 0.05019950072, 0.05051971713, 0.002038927725
486, 0.05017202741, 0.05052944594, 0.002038927725
487, 0.0501440826, 0.05053772357, 0.002038927725
488, 0.05011574286, 0.05054452734, 0.002038927725
489, 0.05008708588, 0.0505498386, 0.002038927725
490, 0.0500581902, 0.05055364278, 0.002038927725
491, 0.05002913503, 0.05055592948, 0.002038927725
492, 0.05, 0.0505566924, 0.002038927725
493, 0.04997086497, 0.05055592948, 0.002038927725
494, 0.0499418098, 0.05055364278, 0.002038927725
495, 0.04991291412, 0.0505498386, 0.002038927725
496, 0.04988425714, 0.05054452734, 0.002038927725
497, 0.0498559174, 0.05053772357, 0.002038927725
498, 0.04982797259, 0.05052944594, 0.002038927725
499, 0.04980049928, 0.05051971713, 0.002038927725
500, 0.0497735728, 0.05050856382, 0.002038927725
501, 0.04974726694, 0.05049601656, 0.002038927725
502, 0.0497216538, 0.05048210976, 0.002038927725
503, 0.04969680359, 0.05046688153, 0.002038927725
504, 0.04967278441, 0.05045037362, 0.002038927725
505, 0.04964966212, 0.05043263125, 0.002038927725
506, 0.04962750007, 0.05041370308, 0.002038927725
507, 0.04960635903, 0.05039364097, 0.002038927725
508, 0.04958629692, 0.05037249993, 0.002038927725
509, 0.04956736875, 0.05035033788, 0.002038927725
510, 0.04954962638, 0.05032721559, 0.002038927725
511, 0.04953311847, 0.05030319641, 0.002038927725
512, 0.04951789024, 0.0502783462, 0.002038927725
513, 0.04950398344, 0.05025273306, 0.002038927725
514, 0.04949143618, 0.0502264272, 0.002038927725
515, 0.04948028287, 0.05019950072, 0.002038927725
516, 0.04947055406, 0.05017202741, 0.002038927725
517, 0.04946227643, 0.0501440826, 0.002038927725
518, 0.04945547266, 0.05011574286, 0.002038927725
519, 0.0494501614, 0.05008708588, 0.002038927725
520, 0.04944635722, 0.0500581902, 0.002038927725
521, 0.04944407052, 0.05002913503, 0.002038927725
522, 0.0494433076, 0.05, 0.002038927725
523, 0.04944407052, 0.04997086497, 0.002038927725
524, 0.04944635722, 0.0499418098, 0.002038927725
525, 0.0494501614, 0.04991291412, 0.002038927725
526, 0.04945547266, 0.04988425714, 0.002038927725
527, 0.04946227643, 0.0498559174, 0.002038927725
528, 0.04947055406, 0.04982797259, 0.002038927725
529, 0.04948028287, 0.04980049928, 0.002038927725
530, 0.04949143618, 0.0497735728, 0.002038927725
531, 0.04950398344, 0.04974726694, 0.002038927725
532, 0.04951789024, 0.0497216538, 0.002038927725
533, 0.04953311847, 0.04969680359, 0.002038927725
534, 0.04954962638, 0.04967278441, 0.002038927725
535, 0.04956736875, 0.04964966212, 0.002038927725
536, 0.04958629692, 0.04962750007, 0.002038927725
537, 0.04960635903, 0.04960635903, 0.002038927725
538, 0.04962750007, 0.04958629692, 0.002038927725
539, 0.04964966212, 0.04956736875, 0.002038927725
540, 0.04967278441, 0.04954962638, 0.002038927725
541, 0.04969680359, 0.04953311847, 0.002038927725
542, 0.0497216538, 0.04951789024, 0.002038927725
543, 0.04974726694, 0.04950398344, 0.002038927725
544, 0.0497735728, 0.04949143618, 0.002038927725
545, 0.04980049928, 0.04948028287, 0.002038927725
546, 0.04982797259, 0.04947055406, 0.002038927725
547, 0.0498559174, 0.04946227643, 0.002038927725
548, 0.04988425714, 0.04945547266, 0.002038927725
549, 0.04991291412, 0.0494501614, 0.002038927725
550, 0.0499418098, 0.04944635722, 0.002038927725
551, 0.04997086497, 0.04944407052, 0.002038927725
552, 0.05, 0.0494433076, 0.002038927725
553, 0.05002913503, 0.04944407052, 0.002038927725
554, 0.0500581902, 0.04944635722, 0.002038927725
555, 0.05008708588, 0.0494501614, 0.002038927725
556, 0.05011574286, 0.04945547266, 0.002038927725
557, 0.0501440826, 0.04946227643, 0.002038927725
558, 0.05017202741, 0.04947055406, 0.002038927725
559, 0.05019950072, 0.04948028287, 0.002038927725
560, 0.0502264272, 0.04949143618, 0.002038927725
561, 0.05025273306, 0.04950398344, 0.002038927725
562, 0.0502783462, 0.04951789024, 0.002038927725
563, 0.05030319641, 0.04953311847, 0.002038927725
564, 0.05032721559, 0.04954962638, 0.002038927725
565, 0.05035033788, 0.04956736875, 0.002038927725
566, 0.05037249993, 0.04958629692, 0.002038927725
567, 0.05039364097, 0.04960635903, 0.002038927725
568, 0.05041370308, 0.04962750007, 0.002038927725
569, 0.05043263125, 0.04964966212, 0.002038927725
570, 0.05045037362, 0.04967278441, 0.002038927725
571, 0.05046688153, 0.04969680359, 0.002038927725
572, 0.05048210976, 0.0497216538, 0.002038927725
573, 0.05049601656, 0.04974726694, 0.002038927725
574, 0.05050856382, 0.0497735728, 0.002038927725
575, 0.05051971713, 0.04980049928, 0.002038927725
576, 0.05052944594, 0.04982797259, 0.002038927725
577, 0.05053772357, 0.0498559174, 0.002038927725
578, 0.05054452734, 0.04988425714, 0.002038927725
579, 0.0505498386, 0.04991291412, 0.002038927725
580, 0.05055364278, 0.0499418098, 0.002038927725
581, 0.05055592948, 0.04997086497, 0.002038927725
582, 0.05069459271, 0.05, 0.002060768988
583, 0.0506936408, 0.05003635217, 0.002060768988
584, 0.05069078766, 0.05007260471, 0.002060768988
585, 0.05068604112, 0.05010865824, 0.002060768988
586, 0.05067941419, 0.05014441394, 0.002060768988
587, 0.05067092504, 0.05017977382, 0.002060768988
588, 0.05066059692, 0.05021464095, 0.002060768988
589, 0.05064845816, 0.05024891977, 0.002060768988
590, 0.05063454202, 0.05028251631, 0.002060768988
591, 0.05061888664, 0.05031533849, 0.002060768988
592, 0.05060153493, 0.05034729636, 0.002060768988
593, 0.05058253446, 0.0503783023, 0.002060768988
594, 0.05056193731, 0.05040827135, 0.002060768988
595, 0.05053979992, 0.05043712136, 0.002060768988
596, 0.05051618298, 0.05046477324, 0.002060768988
597, 0.05049115122, 0.05049115122, 0.002060768988
598, 0.05046477324, 0.05051618298, 0.002060768988
599, 0.05043712136, 0.05053979992, 0.002060768988
600, 0.05040827135, 0.05056193731, 0.002060768988
601, 0.0503783023, 0.05058253446, 0.002060768988
602, 0.05034729636, 0.05060153493, 0.002060768988
603, 0.05031533849, 0.05061888664, 0.002060768988
604, 0.05028251631, 0.05063454202, 0.002060768988
605, 0.05024891977, 0.05064845816, 0.002060768988
606, 0.05021464095, 0.05066059692, 0.002060768988
607, 0.05017977382, 0.05067092504, 0.002060768988
608, 0.05014441394, 0.05067941419, 0.002060768988
609, 0.05010865824, 0.05068604112, 0.002060768988
610, 0.05007260471, 0.05069078766, 0.002060768988
611, 0.05003635217, 0.0506936408, 0.002060768988
612, 0.05, 0.05069459271, 0.002060768988
613, 0.04996364783, 0.0506936408, 0.002060768988
614, 0.04992739529, 0.05069078766, 0.002060768988
615, 0.04989134176, 0.05068604112, 0.002060768988
616, 0.04985558606, 0.05067941419, 0.002060768988
617, 0.04982022618, 0.05067092504, 0.002060768988
618, 0.04978535905, 0.05066059692, 0.002060768988
619, 0.04975108023, 0.05064845816, 0.002060768988
620, 0.04971748369, 0.05063454202, 0.002060768988
621, 0.04968466151, 0.05061888664, 0.002060768988
622, 0.04965270364, 0.05060153493, 0.002060768988
623, 0.0496216977, 0.05058253446, 0.002060768988
624, 0.04959172865, 0.05056193731, 0.002060768988
625, 0.04956287864, 0.05053979992, 0.002060768988
626, 0.04953522676, 0.05051618298, 0.002060768988
627, 0.04950884878, 0.05049115122, 0.002060768988
628, 0.04948381702, 0.05046477324, 0.002060768988
629, 0.04946020008, 0.05043712136, 0.002060768988
630, 0.04943806269, 0.05040827135, 0.002060768988
631, 0.04941746554, 0.0503783023, 0.002060768988
632, 0.04939846507, 0.05034729636, 0.002060768988
633, 0.04938111336, 0.05031533849, 0.002060768988
634, 0.04936545798, 0.05028251631, 0.002060768988
635, 0.04935154184, 0.05024891977, 0.002060768988
636, 0.04933940308, 0.05021464095, 0.002060768988
637, 0.04932907496, 0.05017977382, 0.002060768988
638, 0.04932058581, 0.05014441394, 0.002060768988
639, 0.04931395888, 0.05010865824, 0.002060768988
640, 0.04930921234, 0.05007260471, 0.002060768988
641, 0.0493063592, 0.05003635217, 0.002060768988
642, 0.04930540729, 0.05, 0.002060768988
643, 0.0493063592, 0.04996364783, 0.002060768988
644, 0.04930921234, 0.04992739529, 0.002060768988
645, 0.04931395888, 0.04989134176, 0.002060768988
646, 0.04932058581, 0.04985558606, 0.002060768988
647, 0.04932907496, 0.04982022618, 0.002060768988
648, 0.04933940308, 0.04978535905, 0.002060768988
649, 0.04935154184, 0.04975108023, 0.002060768988
650, 0.04936545798, 0.04971748369, 0.002060768988
651, 0.04938111336, 0.04968466151, 0.002060768988
652, 0.04939846507, 0.04965270364, 0.002060768988
653, 0.04941746554, 0.0496216977, 0.002060768988
654, 0.04943806269, 0.04959172865, 0.002060768988
655, 0.04946020008, 0.04956287864, 0.002060768988
656, 0.04948381702, 0.04953522676, 0.002060768988
657, 0.04950884878, 0.04950884878, 0.002060768988
658, 0.04953522676, 0.04948381702, 0.002060768988
659, 0.04956287864, 0.04946020008, 0.002060768988
660, 0.04959172865, 0.04943806269, 0.002060768988
661, 0.0496216977, 0.04941746554, 0.002060768988
662, 0.04965270364, 0.04939846507, 0.002060768988
663, 0.04968466151, 0.04938111336, 0.002060768988
664, 0.04971748369, 0.04936545798, 0.002060768988
665, 0.04975108023, 0.04935154184, 0.002060768988
666, 0.04978535905, 0.04933940308, 0.002060768988
667, 0.04982022618, 0.04932907496, 0.002060768988
668, 0.04985558606, 0.04932058581, 0.002060768988
669, 0.04989134176, 0.04931395888, 0.002060768988
670, 0.04992739529, 0.04930921234, 0.002060768988
671, 0.04996364783, 0.0493063592, 0.002060768988
672, 0.05, 0.04930540729, 0.002060768988
673, 0.05003635217, 0.0493063592, 0.002060768988
674, 0.05007260471, 0.04930921234, 0.002060768988
675, 0.05010865824, 0.04931395888, 0.002060768988
676, 0.05014441394, 0.04932058581, 0.002060768988
677, 0.05017977382, 0.04932907496, 0.002060768988
678, 0.05021464095, 0.04933940308, 0.002060768988
679, 0.05024891977, 0.04935154184, 0.002060768988
680, 0.05028251631, 0.04936545798, 0.002060768988
681, 0.05031533849, 0.04938111336, 0.002060768988
682, 0.05034729636, 0.04939846507, 0.002060768988
683, 0.0503783023, 0.04941746554, 0.002060768988
684, 0.05040827135, 0.04943806269, 0.002060768988
685, 0.05043712136, 0.04946020008, 0.002060768988
686, 0.05046477324, 0.04948381702, 0.002060768988
687, 0.05049115122, 0.04950884878, 0.002060768988
688, 0.05051618298, 0.04953522676, 0.002060768988
689, 0.05053979992, 0.04956287864, 0.002060768988
690, 0.05056193731, 0.04959172865, 0.002060768988
691, 0.05058253446, 0.0496216977, 0.002060768988
692, 0.05060153493, 0.04965270364, 0.002060768988
693, 0.05061888664, 0.04968466151, 0.002060768988
694, 0.05063454202, 0.04971748369, 0.002060768988
695, 0.05064845816, 0.04975108023, 0.002060768988
696, 0.05066059692, 0.04978535905, 0.002060768988
697, 0.05067092504, 0.04982022618, 0.002060768988
698, 0.05067941419, 0.04985558606, 0.002060768988
699, 0.05068604112, 0.04989134176, 0.002060768988
700, 0.05069078766, 0.04992739529, 0.002060768988
701, 0.0506936408, 0.04996364783, 0.002060768988
702, 0.05083164676, 0.05, 0.002087409597
703, 0.05083050702, 0.05004352503, 0.002087409597
704, 0.05082709092, 0.05008693076, 0.002087409597
705, 0.05082140781, 0.05013009822, 0.002087409597
706, 0.05081347329, 0.05017290908, 0.002087409597
707, 0.05080330909, 0.05021524602, 0.002087409597
708, 0.05079094307, 0.05025699298, 0.002087409597
709, 0.05077640914, 0.05029803555, 0.002087409597
710, 0.05075974712, 0.05033826121, 0.002087409597
711, 0.05074100269, 0.05037755973, 0.002087409597
712, 0.05072022722, 0.05041582338, 0.002087409597
713, 0.05069747766, 0.05045294729, 0.002087409597
714, 0.05067281636, 0.0504888297, 0.002087409597
715, 0.05064631092, 0.05052337227, 0.002087409597
716, 0.05061803399, 0.0505564803, 0.002087409597
717, 0.05058806307, 0.05058806307, 0.002087409597
718, 0.0505564803, 0.05061803399, 0.002087409597
719, 0.05052337227, 0.05064631092, 0.002087409597
720, 0.0504888297, 0.05067281636, 0.002087409597
721, 0.05045294729, 0.05069747766, 0.002087409597
722, 0.05041582338, 0.05072022722, 0.002087409597
723, 0.05037755973, 0.05074100269, 0.002087409597
724, 0.05033826121, 0.05075974712, 0.002087409597
725, 0.05029803555, 0.05077640914, 0.002087409597
726, 0.05025699298, 0.05079094307, 0.002087409597
727, 0.05021524602, 0.05080330909, 0.002087409597
728, 0.05017290908, 0.05081347329, 0.002087409597
729, 0.05013009822, 0.05082140781, 0.002087409597
730, 0.05008693076, 0.05082709092, 0.002087409597
731, 0.05004352503, 0.05083050702, 0.002087409597
732, 0.05, 0.05083164676, 0.002087409597
733, 0.04995647497, 0.05083050702, 0.002087409597
734, 0.04991306924, 0.05082709092, 0.002087409597
735, 0.04986990178, 0.05082140781, 0.002087409597
736, 0.04982709092, 0.05081347329, 0.002087409597
737, 0.04978475398, 0.05080330909, 0.002087409597
738, 0.04974300702, 0.05079094307, 0.002087409597
739, 0.04970196445, 0.05077640914, 0.002087409597
740, 0.04966173879, 0.05075974712, 0.002087409597
741, 0.04962244027, 0.05074100269, 0.002087409597
742, 0.04958417662, 0.05072022722, 0.002087409597
743, 0.04954705271, 0.05069747766, 0.002087409597
744, 0.0495111703, 0.05067281636, 0.002087409597
745, 0.04947662773, 0.05064631092, 0.002087409597
746, 0.0494435197, 0.05061803399, 0.002087409597
747, 0.04941193693, 0.05058806307, 0.002087409597
748, 0.04938196601, 0.0505564803, 0.002087409597
749, 0.04935368908, 0.05052337227, 0.002087409597
750, 0.04932718364, 0.0504888297, 0.002087409597
751, 0.04930252234, 0.05045294729, 0.002087409597
752, 0.04927977278, 0.05041582338, 0.002087409597
753, 0.04925899731, 0.05037755973, 0.002087409597
754, 0.04924025288, 0.05033826121, 0.002087409597
755, 0.04922359086, 0.05029803555, 0.002087409597
756, 0.04920905693, 0.05025699298, 0.002087409597
757, 0.04919669091, 0.05021524602, 0.002087409597
758, 0.04918652671, 0.05017290908, 0.002087409597
759, 0.04917859219, 0.05013009822, 0.002087409597
760, 0.04917290908, 0.05008693076, 0.002087409597
761, 0.04916949298, 0.05004352503, 0.002087409597
762, 0.04916835324, 0.05, 0.002087409597
763, 0.04916949298, 0.04995647497, 0.002087409597
764, 0.04917290908, 0.04991306924, 0.002087409597
765, 0.04917859219, 0.04986990178, 0.002087409597
766, 0.04918652671, 0.04982709092, 0.002087409597
767, 0.04919669091, 0.04978475398, 0.002087409597
768, 0.04920905693, 0.04974300702, 0.002087409597
769, 0.04922359086, 0.04970196445, 0.002087409597
770, 0.04924025288, 0.04966173879, 0.002087409597
771, 0.04925899731, 0.04962244027, 0.002087409597
772, 0.04927977278, 0.04958417662, 0.002087409597
773, 0.04930252234, 0.04954705271, 0.002087409597
774, 0.04932718364, 0.0495111703, 0.002087409597
775, 0.04935368908, 0.04947662773, 0.002087409597
776, 0.04938196601, 0.0494435197, 0.002087409597
777, 0.04941193693, 0.04941193693, 0.002087409597
778, 0.0494435197, 0.04938196601, 0.002087409597
779, 0.04947662773, 0.04935368908, 0.002087409597
780, 0.0495111703, 0.04932718364, 0.002087409597
781, 0.04954705271, 0.04930252234, 0.002087409597
782, 0.04958417662, 0.04927977278, 0.002087409597
783, 0.04962244027, 0.04925899731, 0.002087409597
784, 0.04966173879, 0.04924025288, 0.002087409597
785, 0.04970196445, 0.04922359086, 0.002087409597
786, 0.04974300702, 0.04920905693, 0.002087409597
787, 0.04978475398, 0.04919669091, 0.002087409597
788, 0.04982709092, 0.04918652671, 0.002087409597
789, 0.04986990178, 0.04917859219, 0.002087409597
790, 0.04991306924, 0.04917290908, 0.002087409597
791, 0.04995647497, 0.04916949298, 0.002087409597
792, 0.05, 0.04916835324, 0.002087409597
793, 0.05004352503, 0.04916949298, 0.002087409597
794, 0.05008693076, 0.04917290908, 0.002087409597
795, 0.05013009822, 0.04917859219, 0.002087409597
796, 0.05017290908, 0.04918652671, 0.002087409597
797, 0.05021524602, 0.04919669091, 0.002087409597
798, 0.05025699298, 0.04920905693, 0.002087409597
799, 0.05029803555, 0.04922359086, 0.002087409597
800, 0.05033826121, 0.04924025288, 0.002087409597
801, 0.05037755973, 0.04925899731, 0.002087409597
802, 0.05041582338, 0.04927977278, 0.002087409597
803, 0.05045294729, 0.04930252234, 0.002087409597
804, 0.0504888297, 0.04932718364, 0.002087409597
805, 0.05052337227, 0.04935368908, 0.002087409597
806, 0.0505564803, 0.04938196601, 0.002087409597
807, 0.05058806307, 0.04941193693, 0.002087409597
808, 0.05061803399, 0.0494435197, 0.002087409597
809, 0.05064631092, 0.04947662773, 0.002087409597
810, 0.05067281636, 0.0495111703, 0.002087409597
811, 0.05069747766, 0.04954705271, 0.002087409597
812, 0.05072022722, 0.04958417662, 0.002087409597
813, 0.05074100269, 0.04962244027, 0.002087409597
814, 0.05075974712, 0.04966173879, 0.002087409597
815, 0.05077640914, 0.04970196445, 0.002087409597
816, 0.05079094307, 0.04974300702, 0.002087409597
817, 0.05080330909, 0.04978475398, 0.002087409597
818, 0.05081347329, 0.04982709092, 0.002087409597
819, 0.05082140781, 0.04986990178, 0.002087409597
820, 0.05082709092, 0.04991306924, 0.002087409597
821, 0.05083050702, 0.04995647497, 0.002087409597
822, 0.05096768758, 0.05, 0.002118817095
823, 0.0509663614, 0.05005064485, 0.002118817095
824, 0.05096238649, 0.0501011509, 0.002118817095
825, 0.05095577374, 0.05015137969, 0.002118817095
826, 0.05094654129, 0.05020119356, 0.002118817095
827, 0.05093471443, 0.05025045598, 0.002118817095
828, 0.05092032558, 0.05029903191, 0.002118817095
829, 0.05090341419, 0.05034678821, 0.002118817095
830, 0.0508840266, 0.050393594, 0.002118817095
831, 0.05086221595, 0.05043932097, 0.002118817095
832, 0.05083804203, 0.05048384379, 0.002118817095
833, 0.05081157109, 0.05052704043, 0.002118817095
834, 0.0507828757, 0.05056879249, 0.002118817095
835, 0.0507520345, 0.05060898553, 0.002118817095
836, 0.05071913202, 0.05064750938, 0.002118817095
837, 0.05068425845, 0.05068425845, 0.002118817095
838, 0.05064750938, 0.05071913202, 0.002118817095
839, 0.05060898553, 0.0507520345, 0.002118817095
840, 0.05056879249, 0.0507828757, 0.002118817095
841, 0.05052704043, 0.05081157109, 0.002118817095
842, 0.05048384379, 0.05083804203, 0.002118817095
843, 0.05043932097, 0.05086221595, 0.002118817095
844, 0.050393594, 0.0508840266, 0.002118817095
845, 0.05034678821, 0.05090341419, 0.002118817095
846, 0.05029903191, 0.05092032558, 0.002118817095
847, 0.05025045598, 0.05093471443, 0.002118817095
848, 0.05020119356, 0.05094654129, 0.002118817095
849, 0.05015137969, 0.05095577374, 0.002118817095
850, 0.0501011509, 0.05096238649, 0.002118817095
851, 0.05005064485, 0.0509663614, 0.002118817095
852, 0.05, 0.05096768758, 0.002118817095
853, 0.04994935515, 0.0509663614, 0.002118817095
854, 0.0498988491, 0.05096238649, 0.002118817095
855, 0.04984862031, 0.05095577374, 0.002118817095
856, 0.04979880644, 0.05094654129, 0.002118817095
857, 0.04974954402, 0.05093471443, 0.002118817095
858, 0.04970096809, 0.05092032558, 0.002118817095
859, 0.04965321179, 0.05090341419, 0.002118817095
860, 0.049606406, 0.0508840266, 0.002118817095
861, 0.04956067903, 0.05086221595, 0.002118817095
862, 0.04951615621, 0.05083804203, 0.002118817095
863, 0.04947295957, 0.05081157109, 0.002118817095
864, 0.04943120751, 0.0507828757, 0.002118817095
865, 0.04939101447, 0.0507520345, 0.002118817095
866, 0.04935249062, 0.05071913202, 0.002118817095
867, 0.04931574155, 0.05068425845, 0.002118817095
868, 0.04928086798, 0.05064750938, 0.002118817095
869, 0.0492479655, 0.05060898553, 0.002118817095
870, 0.0492171243, 0.05056879249, 0.002118817095
871, 0.04918842891, 0.05052704043, 0.002118817095
872, 0.04916195797, 0.05048384379, 0.002118817095
873, 0.04913778405, 0.05043932097, 0.002118817095
874, 0.0491159734, 0.050393594, 0.002118817095
875, 0.04909658581, 0.05034678821, 0.002118817095
876, 0.04907967442, 0.05029903191, 0.002118817095
877, 0.04906528557, 0.05025045598, 0.002118817095
878, 0.04905345871, 0.05020119356, 0.002118817095
879, 0.04904422626, 0.05015137969, 0.002118817095
880, 0.04903761351, 0.0501011509, 0.002118817095
881, 0.0490336386, 0.05005064485, 0.002118817095
882, 0.04903231242, 0.05, 0.002118817095
883, 0.0490336386, 0.04994935515, 0.002118817095
884, 0.04903761351, 0.0498988491, 0.002118817095
885, 0.04904422626, 0.04984862031, 0.002118817095
886, 0.04905345871, 0.04979880644, 0.002118817095
887, 0.04906528557, 0.04974954402, 0.002118817095
888, 0.04907967442, 0.04970096809, 0.002118817095
889, 0.04909658581, 0.04965321179, 0.002118817095
890, 0.0491159734, 0.049606406, 0.002118817095
891, 0.04913778405, 0.04956067903, 0.002118817095
892, 0.04916195797, 0.04951615621, 0.002118817095
893, 0.04918842891, 0.04947295957, 0.002118817095
894, 0.0492171243, 0.04943120751, 0.002118817095
895, 0.0492479655, 0.04939101447, 0.002118817095
896, 0.04928086798, 0.04935249062, 0.002118817095
897, 0.04931574155, 0.04931574155, 0.002118817095
898, 0.04935249062, 0.04928086798, 0.002118817095
899, 0.04939101447, 0.0492479655, 0.002118817095
900, 0.04943120751, 0.0492171243, 0.002118817095
901, 0.04947295957, 0.04918842891, 0.002118817095
902, 0.04951615621, 0.04916195797, 0.002118817095
903, 0.04956067903, 0.04913778405, 0.002118817095
904, 0.049606406, 0.0491159734, 0.002118817095
905, 0.04965321179, 0.04909658581, 0.002118817095
906, 0.04970096809, 0.04907967442, 0.002118817095
907, 0.04974954402, 0.04906528557, 0.002118817095
908, 0.04979880644, 0.04905345871, 0.002118817095
909, 0.04984862031, 0.04904422626, 0.002118817095
910, 0.0498988491, 0.04903761351, 0.002118817095
911, 0.04994935515, 0.0490336386, 0.002118817095
912, 0.05, 0.04903231242, 0.002118817095
913, 0.05005064485, 0.0490336386, 0.002118817095
914, 0.0501011509, 0.04903761351, 0.002118817095
915, 0.05015137969, 0.04904422626, 0.002118817095
916, 0.05020119356, 0.04905345871, 0.002118817095
917, 0.05025045598, 0.04906528557, 0.002118817095
918, 0.05029903191, 0.04907967442, 0.002118817095
919, 0.05034678821, 0.04909658581, 0.002118817095
920, 0.050393594, 0.0491159734, 0.002118817095
921, 0.05043932097, 0.04913778405, 0.002118817095
922, 0.05048384379, 0.04916195797, 0.002118817095
923, 0.05052704043, 0.04918842891, 0.002118817095
924, 0.05056879249, 0.0492171243, 0.002118817095
925, 0.05060898553, 0.0492479655, 0.002118817095
926, 0.05064750938, 0.04928086798, 0.002118817095
927, 0.05068425845, 0.04931574155, 0.002118817095
928, 0.05071913202, 0.04935249062, 0.002118817095
929, 0.0507520345, 0.04939101447, 0.002118817095
930, 0.0507828757, 0.04943120751, 0.002118817095
931, 0.05081157109, 0.04947295957, 0.002118817095
932, 0.05083804203, 0.04951615621, 0.002118817095
933, 0.05086221595, 0.04956067903, 0.002118817095
934, 0.0508840266, 0.049606406, 0.002118817095
935, 0.05090341419, 0.04965321179, 0.002118817095
936, 0.05092032558, 0.04970096809, 0.002118817095
937, 0.05093471443, 0.04974954402, 0.002118817095
938, 0.05094654129, 0.04979880644, 0.002118817095
939, 0.05095577374, 0.04984862031, 0.002118817095
940, 0.05096238649, 0.0498988491, 0.002118817095
941, 0.0509663614, 0.04994935515, 0.002118817095
942, 0.05110254942, 0.05, 0.002154953216
943, 0.05110103842, 0.05005770298, 0.002154953216
944, 0.05109650954, 0.0501152478, 0.002154953216
945, 0.05108897521, 0.05017247673, 0.002154953216
946, 0.05107845607, 0.05022923291, 0.002154953216
947, 0.05106498096, 0.05028536079, 0.002154953216
948, 0.05104858681, 0.05034070651, 0.002154953216
949, 0.05102931856, 0.05039511838, 0.002154953216
950, 0.05100722902, 0.05044844725, 0.002154953216
951, 0.05098237873, 0.05050054696, 0.002154953216
952, 0.05095483581, 0.05055127471, 0.002154953216
953, 0.05092467575, 0.05060049145, 0.002154953216
954, 0.05089198122, 0.05064806229, 0.002154953216
955, 0.05085684183, 0.05069385683, 0.002154953216
956, 0.0508193539, 0.05073774956, 0.002154953216
957, 0.05077962017, 0.05077962017, 0.002154953216
958, 0.05073774956, 0.0508193539, 0.002154953216
959, 0.05069385683, 0.05085684183, 0.002154953216
960, 0.05064806229, 0.05089198122, 0.002154953216
961, 0.05060049145, 0.05092467575, 0.002154953216
962, 0.05055127471, 0.05095483581, 0.002154953216
963, 0.05050054696, 0.05098237873, 0.002154953216
964, 0.05044844725, 0.05100722902, 0.002154953216
965, 0.05039511838, 0.05102931856, 0.002154953216
966, 0.05034070651, 0.05104858681, 0.002154953216
967, 0.05028536079, 0.05106498096, 0.002154953216
968, 0.05022923291, 0.05107845607, 0.002154953216
969, 0.05017247673, 0.05108897521, 0.002154953216
970, 0.0501152478, 0.05109650954, 0.002154953216
971, 0.05005770298, 0.05110103842, 0.002154953216
972, 0.05, 0.05110254942, 0.002154953216
973, 0.04994229702, 0.05110103842, 0.002154953216
974, 0.0498847522, 0.05109650954, 0.002154953216
975, 0.04982752327, 0.05108897521, 0.002154953216
976, 0.04977076709, 0.05107845607, 0.002154953216
977, 0.04971463921, 0.05106498096, 0.002154953216
978, 0.04965929349, 0.05104858681, 0.002154953216
979, 0.04960488162, 0.05102931856, 0.002154953216
980, 0.04955155275, 0.05100722902, 0.002154953216
981, 0.04949945304, 0.05098237873, 0.002154953216
982, 0.04944872529, 0.05095483581, 0.002154953216
983, 0.04939950855, 0.05092467575, 0.002154953216
984, 0.04935193771, 0.05089198122, 0.002154953216
985, 0.04930614317, 0.05085684183, 0.002154953216
986, 0.04926225044, 0.0508193539, 0.002154953216
987, 0.04922037983, 0.05077962017, 0.002154953216
988, 0.0491806461, 0.05073774956, 0.002154953216
989, 0.04914315817, 0.05069385683, 0.002154953216
990, 0.04910801878, 0.05064806229, 0.002154953216
991, 0.04907532425, 0.05060049145, 0.002154953216
992, 0.04904516419, 0.05055127471, 0.002154953216
993, 0.04901762127, 0.05050054696, 0.002154953216
994, 0.04899277098, 0.05044844725, 0.002154953216
995, 0.04897068144, 0.05039511838, 0.002154953216
996, 0.04895141319, 0.05034070651, 0.002154953216
997, 0.04893501904, 0.05028536079, 0.002154953216
998, 0.04892154393, 0.05022923291, 0.002154953216
999, 0.04891102479, 0.05017247673, 0.002154953216
1000, 0.04890349046, 0.0501152478, 0.002154953216
1001, 0.04889896158, 0.05005770298, 0.002154953216
1002, 0.04889745058, 0.05, 0.002154953216
1003, 0.04889896158, 0.04994229702, 0.002154953216
1004, 0.04890349046, 0.0498847522, 0.002154953216
1005, 0.04891102479, 0.04982752327, 0.002154953216
1006, 0.04892154393, 0.04977076709, 0.002154953216
1007, 0.04893501904, 0.04971463921, 0.002154953216
1008, 0.04895141319, 0.04965929349, 0.002154953216
1009, 0.04897068144, 0.04960488162, 0.002154953216
1010, 0.04899277098, 0.04955155275, 0.002154953216
1011, 0.04901762127, 0.04949945304, 0.002154953216
1012, 0.04904516419, 0.04944872529, 0.002154953216
1013, 0.04907532425, 0.04939950855, 0.002154953216
1014, 0.04910801878, 0.04935193771, 0.002154953216
1015, 0.04914315817, 0.04930614317, 0.002154953216
1016, 0.0491806461, 0.04926225044, 0.002154953216
1017, 0.04922037983, 0.04922037983, 0.002154953216
1018, 0.04926225044, 0.0491806461, 0.002154953216
1019, 0.04930614317, 0.04914315817, 0.002154953216
1020, 0.04935193771, 0.04910801878, 0.002154953216
1021, 0.04939950855, 0.04907532425, 0.002154953216
1022, 0.04944872529, 0.04904516419, 0.002154953216
1023, 0.04949945304, 0.04901762127, 0.002154953216
1024, 0.04955155275, 0.04899277098, 0.002154953216
1025, 0.04960488162, 0.04897068144, 0.002154953216
1026, 0.04965929349, 0.04895141319, 0.002154953216
1027, 0.04971463921, 0.04893501904, 0.002154953216
1028, 0.04977076709, 0.04892154393, 0.002154953216
1029, 0.04982752327, 0.04891102479, 0.002154953216
1030, 0.0498847522, 0.04890349046, 0.002154953216
1031, 0.04994229702, 0.04889896158, 0.002154953216
1032, 0.05, 0.04889745058, 0.002154953216
1033, 0.05005770298, 0.04889896158, 0.002154953216
1034, 0.0501152478, 0.04890349046, 0.002154953216
1035, 0.05017247673, 0.04891102479, 0.002154953216
1036, 0.05022923291, 0.04892154393, 0.002154953216
1037, 0.05028536079, 0.04893501904, 0.002154953216
1038, 0.05034070651, 0.04895141319, 0.002154953216
1039, 0.05039511838, 0.04897068144, 0.002154953216
1040, 0.05044844725, 0.04899277098, 0.002154953216
1041, 0.05050054696, 0.04901762127, 0.002154953216
1042, 0.05055127471, 0.04904516419, 0.002154953216
1043, 0.05060049145, 0.04907532425, 0.002154953216
1044, 0.05064806229, 0.04910801878, 0.002154953216
1045, 0.05069385683, 0.04914315817, 0.002154953216
1046, 0.05073774956, 0.0491806461, 0.002154953216
1047, 0.05077962017, 0.04922037983, 0.002154953216
1048, 0.0508193539, 0.04926225044, 0.002154953216
1049, 0.05085684183, 0.04930614317, 0.002154953216
1050, 0.05089198122, 0.04935193771, 0.002154953216
1051, 0.05092467575, 0.04939950855, 0.002154953216
1052, 0.05095483581, 0.04944872529, 0.002154953216
1053, 0.05098237873, 0.04949945304, 0.002154953216
1054, 0.05100722902, 0.04955155275, 0.002154953216
1055, 0.05102931856, 0.04960488162, 0.002154953216
1056, 0.05104858681, 0.04965929349, 0.002154953216
1057, 0.05106498096, 0.04971463921, 0.002154953216
1058, 0.05107845607, 0.04977076709, 0.002154953216
1059, 0.05108897521, 0.04982752327, 0.002154953216
1060, 0.05109650954, 0.0498847522, 0.002154953216
1061, 0.05110103842, 0.04994229702, 0.002154953216
1062, 0.05123606798, 0.05, 0.002195773935
1063, 0.05123437399, 0.0500646908, 0.002195773935
1064, 0.05122929667, 0.05012920429, 0.002195773935
1065, 0.05122084993, 0.05019336363, 0.002195773935
1066, 0.05120905693, 0.05025699298, 0.002195773935
1067, 0.05119394998, 0.05031991793, 0.002195773935
1068, 0.0511755705, 0.05038196601, 0.002195773935
1069, 0.05115396887, 0.05044296715, 0.002195773935
1070, 0.05112920429, 0.05050275414, 0.002195773935
1071, 0.05110134463, 0.05056116312, 0.002195773935
1072, 0.05107046627, 0.05061803399, 0.002195773935
1073, 0.05103665383, 0.05067321087, 0.002195773935
1074, 0.051, 0.05072654253, 0.002195773935
1075, 0.05096060524, 0.05077788278, 0.002195773935
1076, 0.05091857752, 0.05082709092, 0.002195773935
1077, 0.05087403205, 0.05087403205, 0.002195773935
1078, 0.05082709092, 0.05091857752, 0.002195773935
1079, 0.05077788278, 0.05096060524, 0.002195773935
1080, 0.05072654253, 0.051, 0.002195773935
1081, 0.05067321087, 0.05103665383, 0.002195773935
1082, 0.05061803399, 0.05107046627, 0.002195773935
1083, 0.05056116312, 0.05110134463, 0.002195773935
1084, 0.05050275414, 0.05112920429, 0.002195773935
1085, 0.05044296715, 0.05115396887, 0.002195773935
1086, 0.05038196601, 0.0511755705, 0.002195773935
1087, 0.05031991793, 0.05119394998, 0.002195773935
1088, 0.05025699298, 0.05120905693, 0.002195773935
1089, 0.05019336363, 0.05122084993, 0.002195773935
1090, 0.05012920429, 0.05122929667, 0.002195773935
1091, 0.0500646908, 0.05123437399, 0.002195773935
1092, 0.05, 0.05123606798, 0.002195773935
1093, 0.0499353092, 0.05123437399, 0.002195773935
1094, 0.04987079571, 0.05122929667, 0.002195773935
1095, 0.04980663637, 0.05122084993, 0.002195773935
1096, 0.04974300702, 0.05120905693, 0.002195773935
1097, 0.04968008207, 0.05119394998, 0.002195773935
1098, 0.04961803399, 0.0511755705, 0.002195773935
1099, 0.04955703285, 0.05115396887, 0.002195773935
1100, 0.04949724586, 0.05112920429, 0.002195773935
1101, 0.04943883688, 0.05110134463, 0.002195773935
1102, 0.04938196601, 0.05107046627, 0.002195773935
1103, 0.04932678913, 0.05103665383, 0.002195773935
1104, 0.04927345747, 0.051, 0.002195773935
1105, 0.04922211722, 0.05096060524, 0.002195773935
1106, 0.04917290908, 0.05091857752, 0.002195773935
1107, 0.04912596795, 0.05087403205, 0.002195773935
1108, 0.04908142248, 0.05082709092, 0.002195773935
1109, 0.04903939476, 0.05077788278, 0.002195773935
1110, 0.049, 0.05072654253, 0.002195773935
1111, 0.04896334617, 0.05067321087, 0.002195773935
1112, 0.04892953373, 0.05061803399, 0.002195773935
1113, 0.04889865537, 0.05056116312, 0.002195773935
1114, 0.04887079571, 0.05050275414, 0.002195773935
1115, 0.04884603113, 0.05044296715, 0.002195773935
1116, 0.0488244295, 0.05038196601, 0.002195773935
1117, 0.04880605002, 0.05031991793, 0.002195773935
1118, 0.04879094307, 0.05025699298, 0.002195773935
1119, 0.04877915007, 0.05019336363, 0.002195773935
1120, 0.04877070333, 0.05012920429, 0.002195773935
1121, 0.04876562601, 0.0500646908, 0.002195773935
1122, 0.04876393202, 0.05, 0.002195773935
1123, 0.04876562601, 0.0499353092, 0.002195773935
1124, 0.04877070333, 0.04987079571, 0.002195773935
1125, 0.04877915007, 0.04980663637, 0.002195773935
1126, 0.04879094307, 0.04974300702, 0.002195773935
1127, 0.04880605002, 0.04968008207, 0.002195773935
1128, 0.0488244295, 0.04961803399, 0.002195773935
1129, 0.04884603113, 0.04955703285, 0.002195773935
1130, 0.04887079571, 0.04949724586, 0.002195773935
1131, 0.04889865537, 0.04943883688, 0.002195773935
1132, 0.04892953373, 0.04938196601, 0.002195773935
1133, 0.04896334617, 0.04932678913, 0.002195773935
1134, 0.049, 0.04927345747, 0.002195773935
1135, 0.04903939476, 0.04922211722, 0.002195773935
1136, 0.04908142248, 0.04917290908, 0.002195773935
1137, 0.04912596795, 0.04912596795, 0.002195773935
1138, 0.04917290908, 0.04908142248, 0.002195773935
1139, 0.04922211722, 0.04903939476, 0.002195773935
1140, 0.04927345747, 0.049, 0.002195773935
1141, 0.04932678913, 0.04896334617, 0.002195773935
1142, 0.04938196601, 0.04892953373, 0.002195773935
1143, 0.04943883688, 0.04889865537, 0.002195773935
1144, 0.04949724586, 0.04887079571, 0.002195773935
1145, 0.04955703285, 0.04884603113, 0.002195773935
1146, 0.04961803399, 0.0488244295, 0.002195773935
1147, 0.04968008207, 0.04880605002, 0.002195773935
1148, 0.04974300702, 0.04879094307, 0.002195773935
1149, 0.04980663637, 0.04877915007, 0.002195773935
1150, 0.04987079571, 0.04877070333, 0.002195773935
1151, 0.0499353092, 0.04876562601, 0.002195773935
1152, 0.05, 0.04876393202, 0.002195773935
1153, 0.0500646908, 0.04876562601, 0.002195773935
1154, 0.05012920429, 0.04877070333, 0.002195773935
1155, 0.05019336363, 0.04877915007, 0.002195773935
1156, 0.05025699298, 0.04879094307, 0.002195773935
1157, 0.05031991793, 0.04880605002, 0.002195773935
1158, 0.05038196601, 0.0488244295, 0.002195773935
1159, 0.05044296715, 0.04884603113, 0.002195773935
1160, 0.05050275414, 0.04887079571, 0.002195773935
1161, 0.05056116312, 0.04889865537, 0.002195773935
1162, 0.05061803399, 0.04892953373, 0.002195773935
1163, 0.05067321087, 0.04896334617, 0.002195773935
1164, 0.05072654253, 0.049, 0.002195773935
1165, 0.05077788278, 0.04903939476, 0.002195773935
1166, 0.05082709092, 0.04908142248, 0.002195773935
1167, 0.05087403205, 0.04912596795, 0.002195773935
1168, 0.05091857752, 0.04917290908, 0.002195773935
1169, 0.05096060524, 0.04922211722, 0.002195773935
1170, 0.051, 0.04927345747, 0.002195773935
1171, 0.05103665383, 0.04932678913, 0.002195773935
1172, 0.05107046627, 0.04938196601, 0.002195773935
1173, 0.05110134463, 0.04943883688, 0.002195773935
1174, 0.05112920429, 0.04949724586, 0.002195773935
1175, 0.05115396887, 0.04955703285, 0.002195773935
1176, 0.0511755705, 0.04961803399, 0.002195773935
1177, 0.05119394998, 0.04968008207, 0.002195773935
1178, 0.05120905693, 0.04974300702, 0.002195773935
1179, 0.05122084993, 0.04980663637, 0.002195773935
1180, 0.05122929667, 0.04987079571, 0.002195773935
1181, 0.05123437399, 0.0499353092, 0.002195773935
1182, 0.05136808057, 0.05, 0.002241229517
1183, 0.05136620567, 0.05007159981, 0.002241229517
1184, 0.05136058608, 0.05014300336, 0.002241229517
1185, 0.05135123723, 0.05021401495, 0.002241229517
1186, 0.05133818473, 0.05028443995, 0.002241229517
1187, 0.05132146436, 0.05035408531, 0.002241229517
1188, 0.05130112194, 0.05042276015, 0.002241229517
1189, 0.05127721325, 0.05049027623, 0.002241229517
1190, 0.05124980379, 0.0505564485, 0.002241229517
1191, 0.05121896872, 0.05062109558, 0.002241229517
1192, 0.05118479253, 0.05068404029, 0.002241229517
1193, 0.05114736891, 0.05074511008, 0.002241229517
1194, 0.05110680043, 0.05080413758, 0.002241229517
1195, 0.05106319829, 0.050860961, 0.002241229517
1196, 0.051016682, 0.05091542458, 0.002241229517
1197, 0.05096737905, 0.05096737905, 0.002241229517
1198, 0.05091542458, 0.051016682, 0.002241229517
1199, 0.050860961, 0.05106319829, 0.002241229517
1200, 0.05080413758, 0.05110680043, 0.002241229517
1201, 0.05074511008, 0.05114736891, 0.002241229517
1202, 0.05068404029, 0.05118479253, 0.002241229517
1203, 0.05062109558, 0.05121896872, 0.002241229517
1204, 0.0505564485, 0.05124980379, 0.002241229517
1205, 0.05049027623, 0.05127721325, 0.002241229517
1206, 0.05042276015, 0.05130112194, 0.002241229517
1207, 0.05035408531, 0.05132146436, 0.002241229517
1208, 0.05028443995, 0.05133818473, 0.002241229517
1209, 0.05021401495, 0.05135123723, 0.002241229517
1210, 0.05014300336, 0.05136058608, 0.002241229517
1211, 0.05007159981, 0.05136620567, 0.002241229517
1212, 0.05, 0.05136808057, 0.002241229517
1213, 0.04992840019, 0.05136620567, 0.002241229517
1214, 0.04985699664, 0.05136058608, 0.002241229517
1215, 0.04978598505, 0.05135123723, 0.002241229517
1216, 0.04971556005, 0.05133818473, 0.002241229517
1217, 0.04964591469, 0.05132146436, 0.002241229517
1218, 0.04957723985, 0.05130112194, 0.002241229517
1219, 0.04950972377, 0.05127721325, 0.002241229517
1220, 0.0494435515, 0.05124980379, 0.002241229517
1221, 0.04937890442, 0.05121896872, 0.002241229517
1222, 0.04931595971, 0.05118479253, 0.002241229517
1223, 0.04925488992, 0.05114736891, 0.002241229517
1224, 0.04919586242, 0.05110680043, 0.002241229517
1225, 0.049139039, 0.05106319829, 0.002241229517
1226, 0.04908457542, 0.051016682, 0.002241229517
1227, 0.04903262095, 0.05096737905, 0.002241229517
1228, 0.048983318, 0.05091542458, 0.002241229517
1229, 0.04893680171, 0.050860961, 0.002241229517
1230, 0.04889319957, 0.05080413758, 0.002241229517
1231, 0.04885263109, 0.05074511008, 0.002241229517
1232, 0.04881520747, 0.05068404029, 0.002241229517
1233, 0.04878103128, 0.05062109558, 0.002241229517
1234, 0.04875019621, 0.0505564485, 0.002241229517
1235, 0.04872278675, 0.05049027623, 0.002241229517
1236, 0.04869887806, 0.05042276015, 0.002241229517
1237, 0.04867853564, 0.05035408531, 0.002241229517
1238, 0.04866181527, 0.05028443995, 0.002241229517
1239, 0.04864876277, 0.05021401495, 0.002241229517
1240, 0.04863941392, 0.05014300336, 0.002241229517
1241, 0.04863379433, 0.05007159981, 0.002241229517
1242, 0.04863191943, 0.05, 0.002241229517
1243, 0.04863379433, 0.04992840019, 0.002241229517
1244, 0.04863941392, 0.04985699664, 0.002241229517
1245, 0.04864876277, 0.04978598505, 0.002241229517
1246, 0.04866181527, 0.04971556005, 0.002241229517
1247, 0.04867853564, 0.04964591469, 0.002241229517
1248, 0.04869887806, 0.04957723985, 0.002241229517
1249, 0.04872278675, 0.04950972377, 0.002241229517
1250, 0.04875019621, 0.0494435515, 0.002241229517
1251, 0.04878103128, 0.04937890442, 0.002241229517
1252, 0.04881520747, 0.04931595971, 0.002241229517
1253, 0.04885263109, 0.04925488992, 0.002241229517
1254, 0.04889319957, 0.04919586242, 0.002241229517
1255, 0.04893680171, 0.049139039, 0.002241229517
1256, 0.048983318, 0.04908457542, 0.002241229517
1257, 0.04903262095, 0.04903262095, 0.002241229517
1258, 0.04908457542, 0.048983318, 0.002241229517
1259, 0.049139039, 0.04893680171, 0.002241229517
1260, 0.04919586242, 0.04889319957, 0.002241229517
1261, 0.04925488992, 0.04885263109, 0.002241229517
1262, 0.04931595971, 0.04881520747, 0.002241229517
1263, 0.04937890442, 0.04878103128, 0.002241229517
1264, 0.0494435515, 0.04875019621, 0.002241229517
1265, 0.04950972377, 0.04872278675, 0.002241229517
1266, 0.04957723985, 0.04869887806, 0.002241229517
1267, 0.04964591469, 0.04867853564, 0.002241229517
1268, 0.04971556005, 0.04866181527, 0.002241229517
1269, 0.04978598505, 0.04864876277, 0.002241229517
1270, 0.04985699664, 0.04863941392, 0.002241229517
1271, 0.04992840019, 0.04863379433, 0.002241229517
1272, 0.05, 0.04863191943, 0.002241229517
1273, 0.05007159981, 0.04863379433, 0.002241229517
1274, 0.05014300336, 0.04863941392, 0.002241229517
1275, 0.05021401495, 0.04864876277, 0.002241229517
1276, 0.05028443995, 0.04866181527, 0.002241229517
1277, 0.05035408531, 0.04867853564, 0.002241229517
1278, 0.05042276015, 0.04869887806, 0.002241229517
1279, 0.05049027623, 0.04872278675, 0.002241229517
1280, 0.0505564485, 0.04875019621, 0.002241229517
1281, 0.05062109558, 0.04878103128, 0.002241229517
1282, 0.05068404029, 0.04881520747, 0.002241229517
1283, 0.05074511008, 0.04885263109, 0.002241229517
1284, 0.05080413758, 0.04889319957, 0.002241229517
1285, 0.050860961, 0.04893680171, 0.002241229517
1286, 0.05091542458, 0.048983318, 0.002241229517
1287, 0.05096737905, 0.04903262095, 0.002241229517
1288, 0.051016682, 0.04908457542, 0.002241229517
1289, 0.05106319829, 0.049139039, 0.002241229517
1290, 0.05110680043, 0.04919586242, 0.002241229517
1291, 0.05114736891, 0.04925488992, 0.002241229517
1292, 0.05118479253, 0.04931595971, 0.002241229517
1293, 0.05121896872, 0.04937890442, 0.002241229517
1294, 0.05124980379, 0.0494435515, 0.002241229517
1295, 0.05127721325, 0.04950972377, 0.002241229517
1296, 0.05130112194, 0.04957723985, 0.002241229517
1297, 0.05132146436, 0.04964591469, 0.002241229517
1298, 0.05133818473, 0.04971556005, 0.002241229517
1299, 0.05135123723, 0.04978598505, 0.002241229517
1300, 0.05136058608, 0.04985699664, 0.002241229517
1301, 0.05136620567, 0.04992840019, 0.002241229517
1302, 0.05149842637, 0.05, 0.002291264582
1303, 0.05149637283, 0.05007842158, 0.002291264582
1304, 0.05149021784, 0.05015662821, 0.002291264582
1305, 0.05147997826, 0.05023440553, 0.002291264582
1306, 0.05146568216, 0.05031154036, 0.002291264582
1307, 0.05144736873, 0.05038782128, 0.002291264582
1308, 0.05142508817, 0.05046303921, 0.002291264582
1309, 0.05139890153, 0.05053698799, 0.002291264582
1310, 0.05136888061, 0.05060946491, 0.002291264582
1311, 0.05133510767, 0.05068027134, 0.002291264582
1312, 0.05129767531, 0.05074921319, 0.002291264582
1313, 0.0512566861, 0.05081610149, 0.002291264582
1314, 0.0512122524, 0.05088075292, 0.002291264582
1315, 0.051164496, 0.05094299027, 0.002291264582
1316, 0.05111354781, 0.05100264295, 0.002291264582
1317, 0.05105954745, 0.05105954745, 0.002291264582
1318, 0.05100264295, 0.05111354781, 0.002291264582
1319, 0.05094299027, 0.051164496, 0.002291264582
1320, 0.05088075292, 0.0512122524, 0.002291264582
1321, 0.05081610149, 0.0512566861, 0.002291264582
1322, 0.05074921319, 0.05129767531, 0.002291264582
1323, 0.05068027134, 0.05133510767, 0.002291264582
1324, 0.05060946491, 0.05136888061, 0.002291264582
1325, 0.05053698799, 0.05139890153, 0.002291264582
1326, 0.05046303921, 0.05142508817, 0.002291264582
1327, 0.05038782128, 0.05144736873, 0.002291264582
1328, 0.05031154036, 0.05146568216, 0.002291264582
1329, 0.05023440553, 0.05147997826, 0.002291264582
1330, 0.05015662821, 0.05149021784, 0.002291264582
1331, 0.05007842158, 0.05149637283, 0.002291264582
1332, 0.05, 0.05149842637, 0.002291264582
1333, 0.04992157842, 0.05149637283, 0.002291264582
1334, 0.04984337179, 0.05149021784, 0.002291264582
1335, 0.04976559447, 0.05147997826, 0.002291264582
1336, 0.04968845964, 0.05146568216, 0.002291264582
1337, 0.04961217872, 0.05144736873, 0.002291264582
1338, 0.04953696079, 0.05142508817, 0.002291264582
1339, 0.04946301201, 0.05139890153, 0.002291264582
1340, 0.04939053509, 0.05136888061, 0.002291264582
1341, 0.04931972866, 0.05133510767, 0.002291264582
1342, 0.04925078681, 0.05129767531, 0.002291264582
1343, 0.04918389851, 0.0512566861, 0.002291264582
1344, 0.04911924708, 0.0512122524, 0.002291264582
1345, 0.04905700973, 0.051164496, 0.002291264582
1346, 0.04899735705, 0.05111354781, 0.002291264582
1347, 0.04894045255, 0.05105954745, 0.002291264582
1348, 0.04888645219, 0.05100264295, 0.002291264582
1349, 0.048835504, 0.05094299027, 0.002291264582
1350, 0.0487877476, 0.05088075292, 0.002291264582
1351, 0.0487433139, 0.05081610149, 0.002291264582
1352, 0.04870232469, 0.05074921319, 0.002291264582
1353, 0.04866489233, 0.05068027134, 0.002291264582
1354, 0.04863111939, 0.05060946491, 0.002291264582
1355, 0.04860109847, 0.05053698799, 0.002291264582
1356, 0.04857491183, 0.05046303921, 0.002291264582
1357, 0.04855263127, 0.05038782128, 0.002291264582
1358, 0.04853431784, 0.05031154036, 0.002291264582
1359, 0.04852002174, 0.05023440553, 0.002291264582
1360, 0.04850978216, 0.05015662821, 0.002291264582
1361, 0.04850362717, 0.05007842158, 0.002291264582
1362, 0.04850157363, 0.05, 0.002291264582
1363, 0.04850362717, 0.04992157842, 0.002291264582
1364, 0.04850978216, 0.04984337179, 0.002291264582
1365, 0.04852002174, 0.04976559447, 0.002291264582
1366, 0.04853431784, 0.04968845964, 0.002291264582
1367, 0.04855263127, 0.04961217872, 0.002291264582
1368, 0.04857491183, 0.04953696079, 0.002291264582
1369, 0.04860109847, 0.04946301201, 0.002291264582
1370, 0.04863111939, 0.04939053509, 0.002291264582
1371, 0.04866489233, 0.04931972866, 0.002291264582
1372, 0.04870232469, 0.04925078681, 0.002291264582
1373, 0.0487433139, 0.04918389851, 0.002291264582
1374, 0.0487877476, 0.04911924708, 0.002291264582
1375, 0.048835504, 0.04905700973, 0.002291264582
1376, 0.04888645219, 0.04899735705, 0.002291264582
1377, 0.04894045255, 0.04894045255, 0.002291264582
1378, 0.04899735705, 0.04888645219, 0.002291264582
1379, 0.04905700973, 0.048835504, 0.002291264582
1380, 0.04911924708, 0.0487877476, 0.002291264582
1381, 0.04918389851, 0.0487433139, 0.002291264582
1382, 0.04925078681, 0.04870232469, 0.002291264582
1383, 0.04931972866, 0.04866489233, 0.002291264582
1384, 0.04939053509, 0.04863111939, 0.002291264582
1385, 0.04946301201, 0.04860109847, 0.002291264582
1386, 0.04953696079, 0.04857491183, 0.002291264582
1387, 0.04961217872, 0.04855263127, 0.002291264582
1388, 0.04968845964, 0.04853431784, 0.002291264582
1389, 0.04976559447, 0.04852002174, 0.002291264582
1390, 0.04984337179, 0.04850978216, 0.002291264582
1391, 0.04992157842, 0.04850362717, 0.002291264582
1392, 0.05, 0.04850157363, 0.002291264582
1393, 0.05007842158, 0.04850362717, 0.002291264582
1394, 0.05015662821, 0.04850978216, 0.002291264582
1395, 0.05023440553, 0.04852002174, 0.002291264582
1396, 0.05031154036, 0.04853431784, 0.002291264582
1397, 0.05038782128, 0.04855263127, 0.002291264582
1398, 0.05046303921, 0.04857491183, 0.002291264582
1399, 0.05053698799, 0.04860109847, 0.002291264582
1400, 0.05060946491, 0.04863111939, 0.002291264582
1401, 0.05068027134, 0.04866489233, 0.002291264582
1402, 0.05074921319, 0.04870232469, 0.002291264582
1403, 0.05081610149, 0.0487433139, 0.002291264582
1404, 0.05088075292, 0.0487877476, 0.002291264582
1405, 0.05094299027, 0.048835504, 0.002291264582
1406, 0.05100264295, 0.04888645219, 0.002291264582
1407, 0.05105954745, 0.04894045255, 0.002291264582
1408, 0.05111354781, 0.04899735705, 0.002291264582
1409, 0.051164496, 0.04905700973, 0.002291264582
1410, 0.0512122524, 0.04911924708, 0.002291264582
1411, 0.0512566861, 0.04918389851, 0.002291264582
1412, 0.05129767531, 0.04925078681, 0.002291264582
1413, 0.05133510767, 0.04931972866, 0.002291264582
1414, 0.05136888061, 0.04939053509, 0.002291264582
1415, 0.05139890153, 0.04946301201, 0.002291264582
1416, 0.05142508817, 0.04953696079, 0.002291264582
1417, 0.05144736873, 0.04961217872, 0.002291264582
1418, 0.05146568216, 0.04968845964, 0.002291264582
1419, 0.05147997826, 0.04976559447, 0.002291264582
1420, 0.05149021784, 0.04984337179, 0.002291264582
1421, 0.05149637283, 0.04992157842, 0.002291264582
1422, 0.05162694657, 0.05, 0.002345818169
1423, 0.0516247169, 0.0500851478, 0.002345818169
1424, 0.05161803399, 0.05017006223, 0.002345818169
1425, 0.05160691616, 0.05025451052, 0.002345818169
1426, 0.05159139389, 0.05033826121, 0.002345818169
1427, 0.05157150971, 0.05042108476, 0.002345818169
1428, 0.05154731814, 0.05050275414, 0.002345818169
1429, 0.05151888547, 0.05058304551, 0.002345818169
1430, 0.05148628965, 0.05066173879, 0.002345818169
1431, 0.05144962001, 0.05073861829, 0.002345818169
1432, 0.05140897706, 0.05081347329, 0.002345818169
1433, 0.05136447221, 0.05088609861, 0.002345818169
1434, 0.05131622743, 0.0509562952, 0.002345818169
1435, 0.05126437496, 0.05102387065, 0.002345818169
1436, 0.05120905693, 0.05108863975, 0.002345818169
1437, 0.05115042495, 0.05115042495, 0.002345818169
1438, 0.05108863975, 0.05120905693, 0.002345818169
1439, 0.05102387065, 0.05126437496, 0.002345818169
1440, 0.0509562952, 0.05131622743, 0.002345818169
1441, 0.05088609861, 0.05136447221, 0.002345818169
1442, 0.05081347329, 0.05140897706, 0.002345818169
1443, 0.05073861829, 0.05144962001, 0.002345818169
1444, 0.05066173879, 0.05148628965, 0.002345818169
1445, 0.05058304551, 0.05151888547, 0.002345818169
1446, 0.05050275414, 0.05154731814, 0.002345818169
1447, 0.05042108476, 0.05157150971, 0.002345818169
1448, 0.05033826121, 0.05159139389, 0.002345818169
1449, 0.05025451052, 0.05160691616, 0.002345818169
1450, 0.05017006223, 0.05161803399, 0.002345818169
1451, 0.0500851478, 0.0516247169, 0.002345818169
1452, 0.05, 0.05162694657, 0.002345818169
1453, 0.0499148522, 0.0516247169, 0.002345818169
1454, 0.04982993777, 0.05161803399, 0.002345818169
1455, 0.04974548948, 0.05160691616, 0.002345818169
1456, 0.04966173879, 0.05159139389, 0.002345818169
1457, 0.04957891524, 0.05157150971, 0.002345818169
1458, 0.04949724586, 0.05154731814, 0.002345818169
1459, 0.04941695449, 0.05151888547, 0.002345818169
1460, 0.04933826121, 0.05148628965, 0.002345818169
1461, 0.04926138171, 0.05144962001, 0.002345818169
1462, 0.04918652671, 0.05140897706, 0.002345818169
1463, 0.04911390139, 0.05136447221, 0.002345818169
1464, 0.0490437048, 0.05131622743, 0.002345818169
1465, 0.04897612935, 0.05126437496, 0.002345818169
1466, 0.04891136025, 0.05120905693, 0.002345818169
1467, 0.04884957505, 0.05115042495, 0.002345818169
1468, 0.04879094307, 0.05108863975, 0.002345818169
1469, 0.04873562504, 0.05102387065, 0.002345818169
1470, 0.04868377257, 0.0509562952, 0.002345818169
1471, 0.04863552779, 0.05088609861, 0.002345818169
1472, 0.04859102294, 0.05081347329, 0.002345818169
1473, 0.04855037999, 0.05073861829, 0.002345818169
1474, 0.04851371035, 0.05066173879, 0.002345818169
1475, 0.04848111453, 0.05058304551, 0.002345818169
1476, 0.04845268186, 0.05050275414, 0.002345818169
1477, 0.04842849029, 0.05042108476, 0.002345818169
1478, 0.04840860611, 0.05033826121, 0.002345818169
1479, 0.04839308384, 0.05025451052, 0.002345818169
1480, 0.04838196601, 0.05017006223, 0.002345818169
1481, 0.0483752831, 0.0500851478, 0.002345818169
1482, 0.04837305343, 0.05, 0.002345818169
1483, 0.0483752831, 0.0499148522, 0.002345818169
1484, 0.04838196601, 0.04982993777, 0.002345818169
1485, 0.04839308384, 0.04974548948, 0.002345818169
1486, 0.04840860611, 0.04966173879, 0.002345818169
1487, 0.04842849029, 0.04957891524, 0.002345818169
1488, 0.04845268186, 0.04949724586, 0.002345818169
1489, 0.04848111453, 0.04941695449, 0.002345818169
1490, 0.04851371035, 0.04933826121, 0.002345818169
1491, 0.04855037999, 0.04926138171, 0.002345818169
1492, 0.04859102294, 0.04918652671, 0.002345818169
1493, 0.04863552779, 0.04911390139, 0.002345818169
1494, 0.04868377257, 0.0490437048, 0.002345818169
1495, 0.04873562504, 0.04897612935, 0.002345818169
1496, 0.04879094307, 0.04891136025, 0.002345818169
1497, 0.04884957505, 0.04884957505, 0.002345818169
1498, 0.04891136025, 0.04879094307, 0.002345818169
1499, 0.04897612935, 0.04873562504, 0.002345818169
1500, 0.0490437048, 0.04868377257, 0.002345818169
1501, 0.04911390139, 0.04863552779, 0.002345818169
1502, 0.04918652671, 0.04859102294, 0.002345818169
1503, 0.04926138171, 0.04855037999, 0.002345818169
1504, 0.04933826121, 0.04851371035, 0.002345818169
1505, 0.04941695449, 0.04848111453, 0.002345818169
1506, 0.04949724586, 0.04845268186, 0.002345818169
1507, 0.04957891524, 0.04842849029, 0.002345818169
1508, 0.04966173879, 0.04840860611, 0.002345818169
1509, 0.04974548948, 0.04839308384, 0.002345818169
1510, 0.04982993777, 0.04838196601, 0.002345818169
1511, 0.0499148522, 0.0483752831, 0.002345818169
1512, 0.05, 0.04837305343, 0.002345818169
1513, 0.0500851478, 0.0483752831, 0.002345818169
1514, 0.05017006223, 0.04838196601, 0.002345818169
1515, 0.05025451052, 0.04839308384, 0.002345818169
1516, 0.05033826121, 0.04840860611, 0.002345818169
1517, 0.05042108476, 0.04842849029, 0.002345818169
1518, 0.05050275414, 0.04845268186, 0.002345818169
1519, 0.05058304551, 0.04848111453, 0.002345818169
1520, 0.05066173879, 0.04851371035, 0.002345818169
1521, 0.05073861829, 0.04855037999, 0.002345818169
1522, 0.05081347329, 0.04859102294, 0.002345818169
1523, 0.05088609861, 0.04863552779, 0.002345818169
1524, 0.0509562952, 0.04868377257, 0.002345818169
1525, 0.05102387065, 0.04873562504, 0.002345818169
1526, 0.05108863975, 0.04879094307, 0.002345818169
1527, 0.05115042495, 0.04884957505, 0.002345818169
1528, 0.05120905693, 0.04891136025, 0.002345818169
1529, 0.05126437496, 0.04897612935, 0.002345818169
1530, 0.05131622743, 0.0490437048, 0.002345818169
1531, 0.05136447221, 0.04911390139, 0.002345818169
1532, 0.05140897706, 0.04918652671, 0.002345818169
1533, 0.05144962001, 0.04926138171, 0.002345818169
1534, 0.05148628965, 0.04933826121, 0.002345818169
1535, 0.05151888547, 0.04941695449, 0.002345818169
1536, 0.05154731814, 0.04949724586, 0.002345818169
1537, 0.05157150971, 0.04957891524, 0.002345818169
1538, 0.05159139389, 0.04966173879, 0.002345818169
1539, 0.05160691616, 0.04974548948, 0.002345818169
1540, 0.05161803399, 0.04982993777, 0.002345818169
1541, 0.0516247169, 0.0499148522, 0.002345818169
1542, 0.05175348459, 0.05, 0.002404823815
1543, 0.0517510815, 0.05009177029, 0.002404823815
1544, 0.05174387882, 0.05018328905, 0.002404823815
1545, 0.05173189628, 0.05027430542, 0.002404823815
1546, 0.05171516674, 0.05036456995, 0.002404823815
1547, 0.05169373605, 0.05045383521, 0.002404823815
1548, 0.05166766294, 0.05054185654, 0.002404823815
1549, 0.05163701889, 0.05062839268, 0.002404823815
1550, 0.05160188788, 0.05071320643, 0.002404823815
1551, 0.05156236621, 0.05079606534, 0.002404823815
1552, 0.0515185622, 0.05087674229, 0.002404823815
1553, 0.05147059591, 0.05095501615, 0.002404823815
1554, 0.05141859883, 0.05103067238, 0.002404823815
1555, 0.05136271347, 0.05110350361, 0.002404823815
1556, 0.051303093, 0.05117331021, 0.002404823815
1557, 0.05123990084, 0.05123990084, 0.002404823815
1558, 0.05117331021, 0.051303093, 0.002404823815
1559, 0.05110350361, 0.05136271347, 0.002404823815
1560, 0.05103067238, 0.05141859883, 0.002404823815
1561, 0.05095501615, 0.05147059591, 0.002404823815
1562, 0.05087674229, 0.0515185622, 0.002404823815
1563, 0.05079606534, 0.05156236621, 0.002404823815
1564, 0.05071320643, 0.05160188788, 0.002404823815
1565, 0.05062839268, 0.05163701889, 0.002404823815
1566, 0.05054185654, 0.05166766294, 0.002404823815
1567, 0.05045383521, 0.05169373605, 0.002404823815
1568, 0.05036456995, 0.05171516674, 0.002404823815
1569, 0.05027430542, 0.05173189628, 0.002404823815
1570, 0.05018328905, 0.05174387882, 0.002404823815
1571, 0.05009177029, 0.0517510815, 0.002404823815
1572, 0.05, 0.05175348459, 0.002404823815
1573, 0.04990822971, 0.0517510815, 0.002404823815
1574, 0.04981671095, 0.05174387882, 0.002404823815
1575, 0.04972569458, 0.05173189628, 0.002404823815
1576, 0.04963543005, 0.05171516674, 0.002404823815
1577, 0.04954616479, 0.05169373605, 0.002404823815
1578, 0.04945814346, 0.05166766294, 0.002404823815
1579, 0.04937160732, 0.05163701889, 0.002404823815
1580, 0.04928679357, 0.05160188788, 0.002404823815
1581, 0.04920393466, 0.05156236621, 0.002404823815
1582, 0.04912325771, 0.0515185622, 0.002404823815
1583, 0.04904498385, 0.05147059591, 0.002404823815
1584, 0.04896932762, 0.05141859883, 0.002404823815
1585, 0.04889649639, 0.05136271347, 0.002404823815
1586, 0.04882668979, 0.051303093, 0.002404823815
1587, 0.04876009916, 0.05123990084, 0.002404823815
1588, 0.048696907, 0.05117331021, 0.002404823815
1589, 0.04863728653, 0.05110350361, 0.002404823815
1590, 0.04858140117, 0.05103067238, 0.002404823815
1591, 0.04852940409, 0.05095501615, 0.002404823815
1592, 0.0484814378, 0.05087674229, 0.002404823815
1593, 0.04843763379, 0.05079606534, 0.002404823815
1594, 0.04839811212, 0.05071320643, 0.002404823815
1595, 0.04836298111, 0.05062839268, 0.002404823815
1596, 0.04833233706, 0.05054185654, 0.002404823815
1597, 0.04830626395, 0.05045383521, 0.002404823815
1598, 0.04828483326, 0.05036456995, 0.002404823815
1599, 0.04826810372, 0.05027430542, 0.002404823815
1600, 0.04825612118, 0.05018328905, 0.002404823815
1601, 0.0482489185, 0.05009177029, 0.002404823815
1602, 0.04824651541, 0.05, 0.002404823815
1603, 0.0482489185, 0.04990822971, 0.002404823815
1604, 0.04825612118, 0.04981671095, 0.002404823815
1605, 0.04826810372, 0.04972569458, 0.002404823815
1606, 0.04828483326, 0.04963543005, 0.002404823815
1607, 0.04830626395, 0.04954616479, 0.002404823815
1608, 0.04833233706, 0.04945814346, 0.002404823815
1609, 0.04836298111, 0.04937160732, 0.002404823815
1610, 0.04839811212, 0.04928679357, 0.002404823815
1611, 0.04843763379, 0.04920393466, 0.002404823815
1612, 0.0484814378, 0.04912325771, 0.002404823815
1613, 0.04852940409, 0.04904498385, 0.002404823815
1614, 0.04858140117, 0.04896932762, 0.002404823815
1615, 0.04863728653, 0.04889649639, 0.002404823815
1616, 0.048696907, 0.04882668979, 0.002404823815
1617, 0.04876009916, 0.04876009916, 0.002404823815
1618, 0.04882668979, 0.048696907, 0.002404823815
1619, 0.04889649639, 0.04863728653, 0.002404823815
1620, 0.04896932762, 0.04858140117, 0.002404823815
1621, 0.04904498385, 0.04852940409, 0.002404823815
1622, 0.04912325771, 0.0484814378, 0.002404823815
1623, 0.04920393466, 0.04843763379, 0.002404823815
1624, 0.04928679357, 0.04839811212, 0.002404823815
1625, 0.04937160732, 0.04836298111, 0.002404823815
1626, 0.04945814346, 0.04833233706, 0.002404823815
1627, 0.04954616479, 0.04830626395, 0.002404823815
1628, 0.04963543005, 0.04828483326, 0.002404823815
1629, 0.04972569458, 0.04826810372, 0.002404823815
1630, 0.04981671095, 0.04825612118, 0.002404823815
1631, 0.04990822971, 0.0482489185, 0.002404823815
1632, 0.05, 0.04824651541, 0.002404823815
1633, 0.05009177029, 0.0482489185, 0.002404823815
1634, 0.05018328905, 0.04825612118, 0.002404823815
1635, 0.05027430542, 0.04826810372, 0.002404823815
1636, 0.05036456995, 0.04828483326, 0.002404823815
1637, 0.05045383521, 0.04830626395, 0.002404823815
1638, 0.05054185654, 0.04833233706, 0.002404823815
1639, 0.05062839268, 0.04836298111, 0.002404823815
1640, 0.05071320643, 0.04839811212, 0.002404823815
1641, 0.05079606534, 0.04843763379, 0.002404823815
1642, 0.05087674229, 0.0484814378, 0.002404823815
1643, 0.05095501615, 0.04852940409, 0.002404823815
1644, 0.05103067238, 0.04858140117, 0.002404823815
1645, 0.05110350361, 0.04863728653, 0.002404823815
1646, 0.05117331021, 0.048696907, 0.002404823815
1647, 0.05123990084, 0.04876009916, 0.002404823815
1648, 0.051303093, 0.04882668979, 0.002404823815
1649, 0.05136271347, 0.04889649639, 0.002404823815
1650, 0.05141859883, 0.04896932762, 0.002404823815
1651, 0.05147059591, 0.04904498385, 0.002404823815
1652, 0.0515185622, 0.04912325771, 0.002404823815
1653, 0.05156236621, 0.04920393466, 0.002404823815
1654, 0.05160188788, 0.04928679357, 0.002404823815
1655, 0.05163701889, 0.04937160732, 0.002404823815
1656, 0.05166766294, 0.04945814346, 0.002404823815
1657, 0.05169373605, 0.04954616479, 0.002404823815
1658, 0.05171516674, 0.04963543005, 0.002404823815
1659, 0.05173189628, 0.04972569458, 0.002404823815
1660, 0.05174387882, 0.04981671095, 0.002404823815
1661, 0.0517510815, 0.04990822971, 0.002404823815
1662, 0.05187788625, 0.05, 0.002468209629
1663, 0.05187531267, 0.05009828097, 0.002468209629
1664, 0.05186759899, 0.05019629256, 0.002468209629
1665, 0.05185476636, 0.05029376613, 0.002468209629
1666, 0.05183684993, 0.05039043451, 0.002468209629
1667, 0.05181389883, 0.05048603273, 0.002468209629
1668, 0.05178597596, 0.05058029877, 0.002468209629
1669, 0.05175315785, 0.05067297425, 0.002468209629
1670, 0.05171553445, 0.05076380515, 0.002468209629
1671, 0.0516732089, 0.05085254252, 0.002468209629
1672, 0.0516262972, 0.05093894313, 0.002468209629
1673, 0.05157492793, 0.05102277016, 0.002468209629
1674, 0.05151924189, 0.05110379384, 0.002468209629
1675, 0.05145939172, 0.05118179211, 0.002468209629
1676, 0.05139554145, 0.05125655117, 0.002468209629
1677, 0.0513278661, 0.0513278661, 0.002468209629
1678, 0.05125655117, 0.05139554145, 0.002468209629
1679, 0.05118179211, 0.05145939172, 0.002468209629
1680, 0.05110379384, 0.05151924189, 0.002468209629
1681, 0.05102277016, 0.05157492793, 0.002468209629
1682, 0.05093894313, 0.0516262972, 0.002468209629
1683, 0.05085254252, 0.0516732089, 0.002468209629
1684, 0.05076380515, 0.05171553445, 0.002468209629
1685, 0.05067297425, 0.05175315785, 0.002468209629
1686, 0.05058029877, 0.05178597596, 0.002468209629
1687, 0.05048603273, 0.05181389883, 0.002468209629
1688, 0.05039043451, 0.05183684993, 0.002468209629
1689, 0.05029376613, 0.05185476636, 0.002468209629
1690, 0.05019629256, 0.05186759899, 0.002468209629
1691, 0.05009828097, 0.05187531267, 0.002468209629
1692, 0.05, 0.05187788625, 0.002468209629
1693, 0.04990171903, 0.05187531267, 0.002468209629
1694, 0.04980370744, 0.05186759899, 0.002468209629
1695, 0.04970623387, 0.05185476636, 0.002468209629
1696, 0.04960956549, 0.05183684993, 0.002468209629
1697, 0.04951396727, 0.05181389883, 0.002468209629
1698, 0.04941970123, 0.05178597596, 0.002468209629
1699, 0.04932702575, 0.05175315785, 0.002468209629
1700, 0.04923619485, 0.05171553445, 0.002468209629
1701, 0.04914745748, 0.0516732089, 0.002468209629
1702, 0.04906105687, 0.0516262972, 0.002468209629
1703, 0.04897722984, 0.05157492793, 0.002468209629
1704, 0.04889620616, 0.05151924189, 0.002468209629
1705, 0.04881820789, 0.05145939172, 0.002468209629
1706, 0.04874344883, 0.05139554145, 0.002468209629
1707, 0.0486721339, 0.0513278661, 0.002468209629
1708, 0.04860445855, 0.05125655117, 0.002468209629
1709, 0.04854060828, 0.05118179211, 0.002468209629
1710, 0.04848075811, 0.05110379384, 0.002468209629
1711, 0.04842507207, 0.05102277016, 0.002468209629
1712, 0.0483737028, 0.05093894313, 0.002468209629
1713, 0.0483267911, 0.05085254252, 0.002468209629
1714, 0.04828446555, 0.05076380515, 0.002468209629
1715, 0.04824684215, 0.05067297425, 0.002468209629
1716, 0.04821402404, 0.05058029877, 0.002468209629
1717, 0.04818610117, 0.05048603273, 0.002468209629
1718, 0.04816315007, 0.05039043451, 0.002468209629
1719, 0.04814523364, 0.05029376613, 0.002468209629
1720, 0.04813240101, 0.05019629256, 0.002468209629
1721, 0.04812468733, 0.05009828097, 0.002468209629
1722, 0.04812211375, 0.05, 0.002468209629
1723, 0.04812468733, 0.04990171903, 0.002468209629
1724, 0.04813240101, 0.04980370744, 0.002468209629
1725, 0.04814523364, 0.04970623387, 0.002468209629
1726, 0.04816315007, 0.04960956549, 0.002468209629
1727, 0.04818610117, 0.04951396727, 0.002468209629
1728, 0.04821402404, 0.04941970123, 0.002468209629
1729, 0.04824684215, 0.04932702575, 0.002468209629
1730, 0.04828446555, 0.04923619485, 0.002468209629
1731, 0.0483267911, 0.04914745748, 0.002468209629
1732, 0.0483737028, 0.04906105687, 0.002468209629
1733, 0.04842507207, 0.04897722984, 0.002468209629
1734, 0.04848075811, 0.04889620616, 0.002468209629
1735, 0.04854060828, 0.04881820789, 0.002468209629
1736, 0.04860445855, 0.04874344883, 0.002468209629
1737, 0.0486721339, 0.0486721339, 0.002468209629
1738, 0.04874344883, 0.04860445855, 0.002468209629
1739, 0.04881820789, 0.04854060828, 0.002468209629
1740, 0.04889620616, 0.04848075811, 0.002468209629
1741, 0.04897722984, 0.04842507207, 0.002468209629
1742, 0.04906105687, 0.0483737028, 0.002468209629
1743, 0.04914745748, 0.0483267911, 0.002468209629
1744, 0.04923619485, 0.04828446555, 0.002468209629
1745, 0.04932702575, 0.04824684215, 0.002468209629
1746, 0.04941970123, 0.04821402404, 0.002468209629
1747, 0.04951396727, 0.04818610117, 0.002468209629
1748, 0.04960956549, 0.04816315007, 0.002468209629
1749, 0.04970623387, 0.04814523364, 0.002468209629
1750, 0.04980370744, 0.04813240101, 0.002468209629
1751, 0.04990171903, 0.04812468733, 0.002468209629
1752, 0.05, 0.04812211375, 0.002468209629
1753, 0.05009828097, 0.04812468733, 0.002468209629
1754, 0.05019629256, 0.04813240101, 0.002468209629
1755, 0.05029376613, 0.04814523364, 0.002468209629
1756, 0.05039043451, 0.04816315007, 0.002468209629
1757, 0.05048603273, 0.04818610117, 0.002468209629
1758, 0.05058029877, 0.04821402404, 0.002468209629
1759, 0.05067297425, 0.04824684215, 0.002468209629
1760, 0.05076380515, 0.04828446555, 0.002468209629
1761, 0.05085254252, 0.0483267911, 0.002468209629
1762, 0.05093894313, 0.0483737028, 0.002468209629
1763, 0.05102277016, 0.04842507207, 0.002468209629
1764, 0.05110379384, 0.04848075811, 0.002468209629
1765, 0.05118179211, 0.04854060828, 0.002468209629
1766, 0.05125655117, 0.04860445855, 0.002468209629
1767, 0.0513278661, 0.0486721339, 0.002468209629
1768, 0.05139554145, 0.04874344883, 0.002468209629
1769, 0.05145939172, 0.04881820789, 0.002468209629
1770, 0.05151924189, 0.04889620616, 0.002468209629
1771, 0.05157492793, 0.04897722984, 0.002468209629
1772, 0.0516262972, 0.04906105687, 0.002468209629
1773, 0.0516732089, 0.04914745748, 0.002468209629
1774, 0.05171553445, 0.04923619485, 0.002468209629
1775, 0.05175315785, 0.04932702575, 0.002468209629
1776, 0.05178597596, 0.04941970123, 0.002468209629
1777, 0.05181389883, 0.04951396727, 0.002468209629
1778, 0.05183684993, 0.04960956549, 0.002468209629
1779, 0.05185476636, 0.04970623387, 0.002468209629
1780, 0.05186759899, 0.04980370744, 0.002468209629
1781, 0.05187531267, 0.04990171903, 0.002468209629
1782, 0.052, 0.05, 0.002535898385
1783, 0.05199725907, 0.05010467191, 0.002535898385
1784, 0.05198904379, 0.05020905693, 0.002535898385
1785, 0.05197537668, 0.05031286893, 0.002535898385
1786, 0.0519562952, 0.05041582338, 0.002535898385
1787, 0.05193185165, 0.05051763809, 0.002535898385
1788, 0.05190211303, 0.05061803399, 0.002535898385
1789, 0.05186716085, 0.0507167359, 0.002535898385
1790, 0.05182709092, 0.05081347329, 0.002535898385
1791, 0.05178201305, 0.050907981, 0.002535898385
1792, 0.05173205081, 0.051, 0.002535898385
1793, 0.05167734114, 0.05108927807, 0.002535898385
1794, 0.05161803399, 0.0511755705, 0.002535898385
1795, 0.05155429192, 0.05125864078, 0.002535898385
1796, 0.05148628965, 0.05133826121, 0.002535898385
1797, 0.05141421356, 0.05141421356, 0.002535898385
1798, 0.05133826121, 0.05148628965, 0.002535898385
1799, 0.05125864078, 0.05155429192, 0.002535898385
1800, 0.0511755705, 0.05161803399, 0.002535898385
1801, 0.05108927807, 0.05167734114, 0.002535898385
1802, 0.051, 0.05173205081, 0.002535898385
1803, 0.050907981, 0.05178201305, 0.002535898385
1804, 0.05081347329, 0.05182709092, 0.002535898385
1805, 0.0507167359, 0.05186716085, 0.002535898385
1806, 0.05061803399, 0.05190211303, 0.002535898385
1807, 0.05051763809, 0.05193185165, 0.002535898385
1808, 0.05041582338, 0.0519562952, 0.002535898385
1809, 0.05031286893, 0.05197537668, 0.002535898385
1810, 0.05020905693, 0.05198904379, 0.002535898385
1811, 0.05010467191, 0.05199725907, 0.002535898385
1812, 0.05, 0.052, 0.002535898385
1813, 0.04989532809, 0.05199725907, 0.002535898385
1814, 0.04979094307, 0.05198904379, 0.002535898385
1815, 0.04968713107, 0.05197537668, 0.002535898385
1816, 0.04958417662, 0.0519562952, 0.002535898385
1817, 0.04948236191, 0.05193185165, 0.002535898385
1818, 0.04938196601, 0.05190211303, 0.002535898385
1819, 0.0492832641, 0.05186716085, 0.002535898385
1820, 0.04918652671, 0.05182709092, 0.002535898385
1821, 0.049092019, 0.05178201305, 0.002535898385
1822, 0.049, 0.05173205081, 0.002535898385
1823, 0.04891072193, 0.05167734114, 0.002535898385
1824, 0.0488244295, 0.05161803399, 0.002535898385
1825, 0.04874135922, 0.05155429192, 0.002535898385
1826, 0.04866173879, 0.05148628965, 0.002535898385
1827, 0.04858578644, 0.05141421356, 0.002535898385
1828, 0.04851371035, 0.05133826121, 0.002535898385
1829, 0.04844570808, 0.05125864078, 0.002535898385
1830, 0.04838196601, 0.0511755705, 0.002535898385
1831, 0.04832265886, 0.05108927807, 0.002535898385
1832, 0.04826794919, 0.051, 0.002535898385
1833, 0.04821798695, 0.050907981, 0.002535898385
1834, 0.04817290908, 0.05081347329, 0.002535898385
1835, 0.04813283915, 0.0507167359, 0.002535898385
1836, 0.04809788697, 0.05061803399, 0.002535898385
1837, 0.04806814835, 0.05051763809, 0.002535898385
1838, 0.0480437048, 0.05041582338, 0.002535898385
1839, 0.04802462332, 0.05031286893, 0.002535898385
1840, 0.04801095621, 0.05020905693, 0.002535898385
1841, 0.04800274093, 0.05010467191, 0.002535898385
1842, 0.048, 0.05, 0.002535898385
1843, 0.04800274093, 0.04989532809, 0.002535898385
1844, 0.04801095621, 0.04979094307, 0.002535898385
1845, 0.04802462332, 0.04968713107, 0.002535898385
1846, 0.0480437048, 0.04958417662, 0.002535898385
1847, 0.04806814835, 0.04948236191, 0.002535898385
1848, 0.04809788697, 0.04938196601, 0.002535898385
1849, 0.04813283915, 0.0492832641, 0.002535898385
1850, 0.04817290908, 0.04918652671, 0.002535898385
1851, 0.04821798695, 0.049092019, 0.002535898385
1852, 0.04826794919, 0.049, 0.002535898385
1853, 0.04832265886, 0.04891072193, 0.002535898385
1854, 0.04838196601, 0.0488244295, 0.002535898385
1855, 0.04844570808, 0.04874135922, 0.002535898385
1856, 0.04851371035, 0.04866173879, 0.002535898385
1857, 0.04858578644, 0.04858578644, 0.002535898385
1858, 0.04866173879, 0.04851371035, 0.002535898385
1859, 0.04874135922, 0.04844570808, 0.002535898385
1860, 0.0488244295, 0.04838196601, 0.002535898385
1861, 0.04891072193, 0.04832265886, 0.002535898385
1862, 0.049, 0.04826794919, 0.002535898385
1863, 0.049092019, 0.04821798695, 0.002535898385
1864, 0.04918652671, 0.04817290908, 0.002535898385
1865, 0.0492832641, 0.04813283915, 0.002535898385
1866, 0.04938196601, 0.04809788697, 0.002535898385
1867, 0.04948236191, 0.04806814835, 0.002535898385
1868, 0.04958417662, 0.0480437048, 0.002535898385
1869, 0.04968713107, 0.04802462332, 0.002535898385
1870, 0.04979094307, 0.04801095621, 0.002535898385
1871, 0.04989532809, 0.04800274093, 0.002535898385
1872, 0.05, 0.048, 0.002535898385
1873, 0.05010467191, 0.04800274093, 0.002535898385
1874, 0.05020905693, 0.04801095621, 0.002535898385
1875, 0.05031286893, 0.04802462332, 0.002535898385
1876, 0.05041582338, 0.0480437048, 0.002535898385
1877, 0.05051763809, 0.04806814835, 0.002535898385
1878, 0.05061803399, 0.04809788697, 0.002535898385
1879, 0.0507167359, 0.04813283915, 0.002535898385
1880, 0.05081347329, 0.04817290908, 0.002535898385
1881, 0.050907981, 0.04821798695, 0.002535898385
1882, 0.051, 0.04826794919, 0.002535898385
1883, 0.05108927807, 0.04832265886, 0.002535898385
1884, 0.0511755705, 0.04838196601, 0.002535898385
1885, 0.05125864078, 0.04844570808, 0.002535898385
1886, 0.05133826121, 0.04851371035, 0.002535898385
1887, 0.05141421356, 0.04858578644, 0.002535898385
1888, 0.05148628965, 0.04866173879, 0.002535898385
1889, 0.05155429192, 0.04874135922, 0.002535898385
1890, 0.05161803399, 0.0488244295, 0.002535898385
1891, 0.05167734114, 0.04891072193, 0.002535898385
1892, 0.05173205081, 0.049, 0.002535898385
1893, 0.05178201305, 0.049092019, 0.002535898385
1894, 0.05182709092, 0.04918652671, 0.002535898385
1895, 0.05186716085, 0.0492832641, 0.002535898385
1896, 0.05190211303, 0.04938196601, 0.002535898385
1897, 0.05193185165, 0.04948236191, 0.002535898385
1898, 0.0519562952, 0.04958417662, 0.002535898385
1899, 0.05197537668, 0.04968713107, 0.002535898385
1900, 0.05198904379, 0.04979094307, 0.002535898385
1901, 0.05199725907, 0.04989532809, 0.002535898385
1902, 0.05211967706, 0.05, 0.002607807615
1903, 0.05211677211, 0.05011093533, 0.002607807615
1904, 0.05210806524, 0.05022156659, 0.002607807615
1905, 0.05209358031, 0.05033159055, 0.002607807615
1906, 0.05207335703, 0.05044070564, 0.002607807615
1907, 0.05204745081, 0.05054861279, 0.002607807615
1908, 0.05201593268, 0.05065501623, 0.002607807615
1909, 0.05197888901, 0.05075962432, 0.002607807615
1910, 0.05193642135, 0.05086215033, 0.002607807615
1911, 0.05188864609, 0.05096231325, 0.002607807615
1912, 0.05183569418, 0.05105983853, 0.002607807615
1913, 0.05177771076, 0.05115445887, 0.002607807615
1914, 0.05171485476, 0.05124591491, 0.002607807615
1915, 0.05164729846, 0.05133395599, 0.002607807615
1916, 0.05157522704, 0.05141834079, 0.002607807615
1917, 0.05149883802, 0.05149883802, 0.002607807615
1918, 0.05141834079, 0.05157522704, 0.002607807615
1919, 0.05133395599, 0.05164729846, 0.002607807615
1920, 0.05124591491, 0.05171485476, 0.002607807615
1921, 0.05115445887, 0.05177771076, 0.002607807615
1922, 0.05105983853, 0.05183569418, 0.002607807615
1923, 0.05096231325, 0.05188864609, 0.002607807615
1924, 0.05086215033, 0.05193642135, 0.002607807615
1925, 0.05075962432, 0.05197888901, 0.002607807615
1926, 0.05065501623, 0.05201593268, 0.002607807615
1927, 0.05054861279, 0.05204745081, 0.002607807615
1928, 0.05044070564, 0.05207335703, 0.002607807615
1929, 0.05033159055, 0.05209358031, 0.002607807615
1930, 0.05022156659, 0.05210806524, 0.002607807615
1931, 0.05011093533, 0.05211677211, 0.002607807615
1932, 0.05, 0.05211967706, 0.002607807615
1933, 0.04988906467, 0.05211677211, 0.002607807615
1934, 0.04977843341, 0.05210806524, 0.002607807615
1935, 0.04966840945, 0.05209358031, 0.002607807615
1936, 0.04955929436, 0.05207335703, 0.002607807615
1937, 0.04945138721, 0.05204745081, 0.002607807615
1938, 0.04934498377, 0.05201593268, 0.002607807615
1939, 0.04924037568, 0.05197888901, 0.002607807615
1940, 0.04913784967, 0.05193642135, 0.002607807615
1941, 0.04903768675, 0.05188864609, 0.002607807615
1942, 0.04894016147, 0.05183569418, 0.002607807615
1943, 0.04884554113, 0.05177771076, 0.002607807615
1944, 0.04875408509, 0.05171485476, 0.002607807615
1945, 0.04866604401, 0.05164729846, 0.002607807615
1946, 0.04858165921, 0.05157522704, 0.002607807615
1947, 0.04850116198, 0.05149883802, 0.002607807615
1948, 0.04842477296, 0.05141834079, 0.002607807615
1949, 0.04835270154, 0.05133395599, 0.002607807615
1950, 0.04828514524, 0.05124591491, 0.002607807615
1951, 0.04822228924, 0.05115445887, 0.002607807615
1952, 0.04816430582, 0.05105983853, 0.002607807615
1953, 0.04811135391, 0.05096231325, 0.002607807615
1954, 0.04806357865, 0.05086215033, 0.002607807615
1955, 0.04802111099, 0.05075962432, 0.002607807615
1956, 0.04798406732, 0.05065501623, 0.002607807615
1957, 0.04795254919, 0.05054861279, 0.002607807615
1958, 0.04792664297, 0.05044070564, 0.002607807615
1959, 0.04790641969, 0.05033159055, 0.002607807615
1960, 0.04789193476, 0.05022156659, 0.002607807615
1961, 0.04788322789, 0.05011093533, 0.002607807615
1962, 0.04788032294, 0.05, 0.002607807615
1963, 0.04788322789, 0.04988906467, 0.002607807615
1964, 0.04789193476, 0.04977843341, 0.002607807615
1965, 0.04790641969, 0.04966840945, 0.002607807615
1966, 0.04792664297, 0.04955929436, 0.002607807615
1967, 0.04795254919, 0.04945138721, 0.002607807615
1968, 0.04798406732, 0.04934498377, 0.002607807615
1969, 0.04802111099, 0.04924037568, 0.002607807615
1970, 0.04806357865, 0.04913784967, 0.002607807615
1971, 0.04811135391, 0.04903768675, 0.002607807615
1972, 0.04816430582, 0.04894016147, 0.002607807615
1973, 0.04822228924, 0.04884554113, 0.002607807615
1974, 0.04828514524, 0.04875408509, 0.002607807615
1975, 0.04835270154, 0.04866604401, 0.002607807615
1976, 0.04842477296, 0.04858165921, 0.002607807615
1977, 0.04850116198, 0.04850116198, 0.002607807615
1978, 0.04858165921, 0.04842477296, 0.002607807615
1979, 0.04866604401, 0.04835270154, 0.002607807615
1980, 0.04875408509, 0.04828514524, 0.002607807615
1981, 0.04884554113, 0.04822228924, 0.002607807615
1982, 0.04894016147, 0.04816430582, 0.002607807615
1983, 0.04903768675, 0.04811135391, 0.002607807615
1984, 0.04913784967, 0.04806357865, 0.002607807615
1985, 0.04924037568, 0.04802111099, 0.002607807615
1986, 0.04934498377, 0.04798406732, 0.002607807615
1987, 0.04945138721, 0.04795254919, 0.002607807615
1988, 0.04955929436, 0.04792664297, 0.002607807615
1989, 0.04966840945, 0.04790641969, 0.002607807615
1990, 0.04977843341, 0.04789193476, 0.002607807615
1991, 0.04988906467, 0.04788322789, 0.002607807615
1992, 0.05, 0.04788032294, 0.002607807615
1993, 0.05011093533, 0.04788322789, 0.002607807615
1994, 0.05022156659, 0.04789193476, 0.002607807615
1995, 0.05033159055, 0.04790641969, 0.002607807615
1996, 0.05044070564, 0.04792664297, 0.002607807615
1997, 0.05054861279, 0.04795254919, 0.002607807615
1998, 0.05065501623, 0.04798406732, 0.002607807615
1999, 0.05075962432, 0.04802111099, 0.002607807615
2000, 0.05086215033, 0.04806357865, 0.002607807615
2001, 0.05096231325, 0.04811135391, 0.002607807615
2002, 0.05105983853, 0.04816430582, 0.002607807615
2003, 0.05115445887, 0.04822228924, 0.002607807615
2004, 0.05124591491, 0.04828514524, 0.002607807615
2005, 0.05133395599, 0.04835270154, 0.002607807615
2006, 0.05141834079, 0.04842477296, 0.002607807615
2007, 0.05149883802, 0.04850116198, 0.002607807615
2008, 0.05157522704, 0.04858165921, 0.002607807615
2009, 0.05164729846, 0.04866604401, 0.002607807615
2010, 0.05171485476, 0.04875408509, 0.002607807615
2011, 0.05177771076, 0.04884554113, 0.002607807615
2012, 0.05183569418, 0.04894016147, 0.002607807615
2013, 0.05188864609, 0.04903768675, 0.002607807615
2014, 0.05193642135, 0.04913784967, 0.002607807615
2015, 0.05197888901, 0.04924037568, 0.002607807615
2016, 0.05201593268, 0.04934498377, 0.002607807615
2017, 0.05204745081, 0.04945138721, 0.002607807615
2018, 0.05207335703, 0.04955929436, 0.002607807615
2019, 0.05209358031, 0.04966840945, 0.002607807615
2020, 0.05210806524, 0.04977843341, 0.002607807615
2021, 0.05211677211, 0.04988906467, 0.002607807615
2022, 0.05223677161, 0.05, 0.00268384971
2023, 0.0522337062, 0.05011706358, 0.00268384971
2024, 0.05222451834, 0.0502338063, 0.00268384971
2025, 0.05220923324, 0.05034990817, 0.00268384971
2026, 0.05218789279, 0.05046505097, 0.00268384971
2027, 0.05216055547, 0.05057891909, 0.00268384971
2028, 0.05212729622, 0.05069120044, 0.00268384971
2029, 0.0520882062, 0.05080158726, 0.00268384971
2030, 0.05204339255, 0.05090977698, 0.00268384971
2031, 0.0519929781, 0.05101547306, 0.00268384971
2032, 0.05193710104, 0.05111838581, 0.00268384971
2033, 0.05187591452, 0.05121823313, 0.00268384971
2034, 0.05180958625, 0.05131474137, 0.00268384971
2035, 0.05173829803, 0.05140764599, 0.00268384971
2036, 0.05166224525, 0.05149669235, 0.00268384971
2037, 0.05158163638, 0.05158163638, 0.00268384971
2038, 0.05149669235, 0.05166224525, 0.00268384971
2039, 0.05140764599, 0.05173829803, 0.00268384971
2040, 0.05131474137, 0.05180958625, 0.00268384971
2041, 0.05121823313, 0.05187591452, 0.00268384971
2042, 0.05111838581, 0.05193710104, 0.00268384971
2043, 0.05101547306, 0.0519929781, 0.00268384971
2044, 0.05090977698, 0.05204339255, 0.00268384971
2045, 0.05080158726, 0.0520882062, 0.00268384971
2046, 0.05069120044, 0.05212729622, 0.00268384971
2047, 0.05057891909, 0.05216055547, 0.00268384971
2048, 0.05046505097, 0.05218789279, 0.00268384971
2049, 0.05034990817, 0.05220923324, 0.00268384971
2050, 0.0502338063, 0.05222451834, 0.00268384971
2051, 0.05011706358, 0.0522337062, 0.00268384971
2052, 0.05, 0.05223677161, 0.00268384971
2053, 0.04988293642, 0.0522337062, 0.00268384971
2054, 0.0497661937, 0.05222451834, 0.00268384971
2055, 0.04965009183, 0.05220923324, 0.00268384971
2056, 0.04953494903, 0.05218789279, 0.00268384971
2057, 0.04942108091, 0.05216055547, 0.00268384971
2058, 0.04930879956, 0.05212729622, 0.00268384971
2059, 0.04919841274, 0.0520882062, 0.00268384971
2060, 0.04909022302, 0.05204339255, 0.00268384971
2061, 0.04898452694, 0.0519929781, 0.00268384971
2062, 0.04888161419, 0.05193710104, 0.00268384971
2063, 0.04878176687, 0.05187591452, 0.00268384971
2064, 0.04868525863, 0.05180958625, 0.00268384971
2065, 0.04859235401, 0.05173829803, 0.00268384971
2066, 0.04850330765, 0.05166224525, 0.00268384971
2067, 0.04841836362, 0.05158163638, 0.00268384971
2068, 0.04833775475, 0.05149669235, 0.00268384971
2069, 0.04826170197, 0.05140764599, 0.00268384971
2070, 0.04819041375, 0.05131474137, 0.00268384971
2071, 0.04812408548, 0.05121823313, 0.00268384971
2072, 0.04806289896, 0.05111838581, 0.00268384971
2073, 0.0480070219, 0.05101547306, 0.00268384971
2074, 0.04795660745, 0.05090977698, 0.00268384971
2075, 0.0479117938, 0.05080158726, 0.00268384971
2076, 0.04787270378, 0.05069120044, 0.00268384971
2077, 0.04783944453, 0.05057891909, 0.00268384971
2078, 0.04781210721, 0.05046505097, 0.00268384971
2079, 0.04779076676, 0.05034990817, 0.00268384971
2080, 0.04777548166, 0.0502338063, 0.00268384971
2081, 0.0477662938, 0.05011706358, 0.00268384971
2082, 0.04776322839, 0.05, 0.00268384971
2083, 0.0477662938, 0.04988293642, 0.00268384971
2084, 0.04777548166, 0.0497661937, 0.00268384971
2085, 0.04779076676, 0.04965009183, 0.00268384971
2086, 0.04781210721, 0.04953494903, 0.00268384971
2087, 0.04783944453, 0.04942108091, 0.00268384971
2088, 0.04787270378, 0.04930879956, 0.00268384971
2089, 0.0479117938, 0.04919841274, 0.00268384971
2090, 0.04795660745, 0.04909022302, 0.00268384971
2091, 0.0480070219, 0.04898452694, 0.00268384971
2092, 0.04806289896, 0.04888161419, 0.00268384971
2093, 0.04812408548, 0.04878176687, 0.00268384971
2094, 0.04819041375, 0.04868525863, 0.00268384971
2095, 0.04826170197, 0.04859235401, 0.00268384971
2096, 0.04833775475, 0.04850330765, 0.00268384971
2097, 0.04841836362, 0.04841836362, 0.00268384971
2098, 0.04850330765, 0.04833775475, 0.00268384971
2099, 0.04859235401, 0.04826170197, 0.00268384971
2100, 0.04868525863, 0.04819041375, 0.00268384971
2101, 0.04878176687, 0.04812408548, 0.00268384971
2102, 0.04888161419, 0.04806289896, 0.00268384971
2103, 0.04898452694, 0.0480070219, 0.00268384971
2104, 0.04909022302, 0.04795660745, 0.00268384971
2105, 0.04919841274, 0.0479117938, 0.00268384971
2106, 0.04930879956, 0.04787270378, 0.00268384971
2107, 0.04942108091, 0.04783944453, 0.00268384971
2108, 0.04953494903, 0.04781210721, 0.00268384971
2109, 0.04965009183, 0.04779076676, 0.00268384971
2110, 0.0497661937, 0.04777548166, 0.00268384971
2111, 0.04988293642, 0.0477662938, 0.00268384971
2112, 0.05, 0.04776322839, 0.00268384971
2113, 0.05011706358, 0.0477662938, 0.00268384971
2114, 0.0502338063, 0.04777548166, 0.00268384971
2115, 0.05034990817, 0.04779076676, 0.00268384971
2116, 0.05046505097, 0.04781210721, 0.00268384971
2117, 0.05057891909, 0.04783944453, 0.00268384971
2118, 0.05069120044, 0.04787270378, 0.00268384971
2119, 0.05080158726, 0.0479117938, 0.00268384971
2120, 0.05090977698, 0.04795660745, 0.00268384971
2121, 0.05101547306, 0.0480070219, 0.00268384971
2122, 0.05111838581, 0.04806289896, 0.00268384971
2123, 0.05121823313, 0.04812408548, 0.00268384971
2124, 0.05131474137, 0.04819041375, 0.00268384971
2125, 0.05140764599, 0.04826170197, 0.00268384971
2126, 0.05149669235, 0.04833775475, 0.00268384971
2127, 0.05158163638, 0.04841836362, 0.00268384971
2128, 0.05166224525, 0.04850330765, 0.00268384971
2129, 0.05173829803, 0.04859235401, 0.00268384971
2130, 0.05180958625, 0.04868525863, 0.00268384971
2131, 0.05187591452, 0.04878176687, 0.00268384971
2132, 0.05193710104, 0.04888161419, 0.00268384971
2133, 0.0519929781, 0.04898452694, 0.00268384971
2134, 0.05204339255, 0.04909022302, 0.00268384971
2135, 0.0520882062, 0.04919841274, 0.00268384971
2136, 0.05212729622, 0.04930879956, 0.00268384971
2137, 0.05216055547, 0.04942108091, 0.00268384971
2138, 0.05218789279, 0.04953494903, 0.00268384971
2139, 0.05220923324, 0.04965009183, 0.00268384971
2140, 0.05222451834, 0.0497661937, 0.00268384971
2141, 0.0522337062, 0.04988293642, 0.00268384971
2142, 0.05235114101, 0.05, 0.002763932023
2143, 0.05234791885, 0.05012304921, 0.002763932023
2144, 0.05233826121, 0.05024576116, 0.002763932023
2145, 0.05232219456, 0.05036779949, 0.002763932023
2146, 0.05229976294, 0.0504888297, 0.002763932023
2147, 0.05227102782, 0.05060852007, 0.002763932023
2148, 0.05223606798, 0.05072654253, 0.002763932023
2149, 0.05219497923, 0.05084257358, 0.002763932023
2150, 0.05214787419, 0.0509562952, 0.002763932023
2151, 0.05209488198, 0.05106739568, 0.002763932023
2152, 0.05203614784, 0.0511755705, 0.002763932023
2153, 0.05197183277, 0.05128052317, 0.002763932023
2154, 0.05190211303, 0.05138196601, 0.002763932023
2155, 0.05182717974, 0.05147962098, 0.002763932023
2156, 0.05174723827, 0.05157322041, 0.002763932023
2157, 0.05166250775, 0.05166250775, 0.002763932023
2158, 0.05157322041, 0.05174723827, 0.002763932023
2159, 0.05147962098, 0.05182717974, 0.002763932023
2160, 0.05138196601, 0.05190211303, 0.002763932023
2161, 0.05128052317, 0.05197183277, 0.002763932023
2162, 0.0511755705, 0.05203614784, 0.002763932023
2163, 0.05106739568, 0.05209488198, 0.002763932023
2164, 0.0509562952, 0.05214787419, 0.002763932023
2165, 0.05084257358, 0.05219497923, 0.002763932023
2166, 0.05072654253, 0.05223606798, 0.002763932023
2167, 0.05060852007, 0.05227102782, 0.002763932023
2168, 0.0504888297, 0.05229976294, 0.002763932023
2169, 0.05036779949, 0.05232219456, 0.002763932023
2170, 0.05024576116, 0.05233826121, 0.002763932023
2171, 0.05012304921, 0.05234791885, 0.002763932023
2172, 0.05, 0.05235114101, 0.002763932023
2173, 0.04987695079, 0.05234791885, 0.002763932023
2174, 0.04975423884, 0.05233826121, 0.002763932023
2175, 0.04963220051, 0.05232219456, 0.002763932023
2176, 0.0495111703, 0.05229976294, 0.002763932023
2177, 0.04939147993, 0.05227102782, 0.002763932023
2178, 0.04927345747, 0.05223606798, 0.002763932023
2179, 0.04915742642, 0.05219497923, 0.002763932023
2180, 0.0490437048, 0.05214787419, 0.002763932023
2181, 0.04893260432, 0.05209488198, 0.002763932023
2182, 0.0488244295, 0.05203614784, 0.002763932023
2183, 0.04871947683, 0.05197183277, 0.002763932023
2184, 0.04861803399, 0.05190211303, 0.002763932023
2185, 0.04852037902, 0.05182717974, 0.002763932023
2186, 0.04842677959, 0.05174723827, 0.002763932023
2187, 0.04833749225, 0.05166250775, 0.002763932023
2188, 0.04825276173, 0.05157322041, 0.002763932023
2189, 0.04817282026, 0.05147962098, 0.002763932023
2190, 0.04809788697, 0.05138196601, 0.002763932023
2191, 0.04802816723, 0.05128052317, 0.002763932023
2192, 0.04796385216, 0.0511755705, 0.002763932023
2193, 0.04790511802, 0.05106739568, 0.002763932023
2194, 0.04785212581, 0.0509562952, 0.002763932023
2195, 0.04780502077, 0.05084257358, 0.002763932023
2196, 0.04776393202, 0.05072654253, 0.002763932023
2197, 0.04772897218, 0.05060852007, 0.002763932023
2198, 0.04770023706, 0.0504888297, 0.002763932023
2199, 0.04767780544, 0.05036779949, 0.002763932023
2200, 0.04766173879, 0.05024576116, 0.002763932023
2201, 0.04765208115, 0.05012304921, 0.002763932023
2202, 0.04764885899, 0.05, 0.002763932023
2203, 0.04765208115, 0.04987695079, 0.002763932023
2204, 0.04766173879, 0.04975423884, 0.002763932023
2205, 0.04767780544, 0.04963220051, 0.002763932023
2206, 0.04770023706, 0.0495111703, 0.002763932023
2207, 0.04772897218, 0.04939147993, 0.002763932023
2208, 0.04776393202, 0.04927345747, 0.002763932023
2209, 0.04780502077, 0.04915742642, 0.002763932023
2210, 0.04785212581, 0.0490437048, 0.002763932023
2211, 0.04790511802, 0.04893260432, 0.002763932023
2212, 0.04796385216, 0.0488244295, 0.002763932023
2213, 0.04802816723, 0.04871947683, 0.002763932023
2214, 0.04809788697, 0.04861803399, 0.002763932023
2215, 0.04817282026, 0.04852037902, 0.002763932023
2216, 0.04825276173, 0.04842677959, 0.002763932023
2217, 0.04833749225, 0.04833749225, 0.002763932023
2218, 0.04842677959, 0.04825276173, 0.002763932023
2219, 0.04852037902, 0.04817282026, 0.002763932023
2220, 0.04861803399, 0.04809788697, 0.002763932023
2221, 0.04871947683, 0.04802816723, 0.002763932023
2222, 0.0488244295, 0.04796385216, 0.002763932023
2223, 0.04893260432, 0.04790511802, 0.002763932023
2224, 0.0490437048, 0.04785212581, 0.002763932023
2225, 0.04915742642, 0.04780502077, 0.002763932023
2226, 0.04927345747, 0.04776393202, 0.002763932023
2227, 0.04939147993, 0.04772897218, 0.002763932023
2228, 0.0495111703, 0.04770023706, 0.002763932023
2229, 0.04963220051, 0.04767780544, 0.002763932023
2230, 0.04975423884, 0.04766173879, 0.002763932023
2231, 0.04987695079, 0.04765208115, 0.002763932023
2232, 0.05, 0.04764885899, 0.002763932023
2233, 0.05012304921, 0.04765208115, 0.002763932023
2234, 0.05024576116, 0.04766173879, 0.002763932023
2235, 0.05036779949, 0.04767780544, 0.002763932023
2236, 0.0504888297, 0.04770023706, 0.002763932023
2237, 0.05060852007, 0.04772897218, 0.002763932023
2238, 0.05072654253, 0.04776393202, 0.002763932023
2239, 0.05084257358, 0.04780502077, 0.002763932023
2240, 0.0509562952, 0.04785212581, 0.002763932023
2241, 0.05106739568, 0.04790511802, 0.002763932023
2242, 0.0511755705, 0.04796385216, 0.002763932023
2243, 0.05128052317, 0.04802816723, 0.002763932023
2244, 0.05138196601, 0.04809788697, 0.002763932023
2245, 0.05147962098, 0.04817282026, 0.002763932023
2246, 0.05157322041, 0.04825276173, 0.002763932023
2247, 0.05166250775, 0.04833749225, 0.002763932023
2248, 0.05174723827, 0.04842677959, 0.002763932023
2249, 0.05182717974, 0.04852037902, 0.002763932023
2250, 0.05190211303, 0.04861803399, 0.002763932023
2251, 0.05197183277, 0.04871947683, 0.002763932023
2252, 0.05203614784, 0.0488244295, 0.002763932023
2253, 0.05209488198, 0.04893260432, 0.002763932023
2254, 0.05214787419, 0.0490437048, 0.002763932023
2255, 0.05219497923, 0.04915742642, 0.002763932023
2256, 0.05223606798, 0.04927345747, 0.002763932023
2257, 0.05227102782, 0.04939147993, 0.002763932023
2258, 0.05229976294, 0.0495111703, 0.002763932023
2259, 0.05232219456, 0.04963220051, 0.002763932023
2260, 0.05233826121, 0.04975423884, 0.002763932023
2261, 0.05234791885, 0.04987695079, 0.002763932023
2262, 0.0524626459, 0.05, 0.002847956986
2263, 0.05245927093, 0.05012888493, 0.002847956986
2264, 0.05244915527, 0.05025741659, 0.002847956986
2265, 0.05243232664, 0.05038524269, 0.002847956986
2266, 0.05240883118, 0.05051201287, 0.002847956986
2267, 0.05237873328, 0.05063737966, 0.002847956986
2268, 0.05234211543, 0.05076099943, 0.002847956986
2269, 0.05229907801, 0.05088253336, 0.002847956986
2270, 0.05224973898, 0.05100164833, 0.002847956986
2271, 0.05219423356, 0.05111801784, 0.002847956986
2272, 0.05213271391, 0.05123132295, 0.002847956986
2273, 0.05206534864, 0.05134125309, 0.002847956986
2274, 0.05199232239, 0.05144750694, 0.002847956986
2275, 0.05191383532, 0.05154979328, 0.002847956986
2276, 0.05183010256, 0.05164783175, 0.002847956986
2277, 0.05174135362, 0.05174135362, 0.002847956986
2278, 0.05164783175, 0.05183010256, 0.002847956986
2279, 0.05154979328, 0.05191383532, 0.002847956986
2280, 0.05144750694, 0.05199232239, 0.002847956986
2281, 0.05134125309, 0.05206534864, 0.002847956986
2282, 0.05123132295, 0.05213271391, 0.002847956986
2283, 0.05111801784, 0.05219423356, 0.002847956986
2284, 0.05100164833, 0.05224973898, 0.002847956986
2285, 0.05088253336, 0.05229907801, 0.002847956986
2286, 0.05076099943, 0.05234211543, 0.002847956986
2287, 0.05063737966, 0.05237873328, 0.002847956986
2288, 0.05051201287, 0.05240883118, 0.002847956986
2289, 0.05038524269, 0.05243232664, 0.002847956986
2290, 0.05025741659, 0.05244915527, 0.002847956986
2291, 0.05012888493, 0.05245927093, 0.002847956986
2292, 0.05, 0.0524626459, 0.002847956986
2293, 0.04987111507, 0.05245927093, 0.002847956986
2294, 0.04974258341, 0.05244915527, 0.002847956986
2295, 0.04961475731, 0.05243232664, 0.002847956986
2296, 0.04948798713, 0.05240883118, 0.002847956986
2297, 0.04936262034, 0.05237873328, 0.002847956986
2298, 0.04923900057, 0.05234211543, 0.002847956986
2299, 0.04911746664, 0.05229907801, 0.002847956986
2300, 0.04899835167, 0.05224973898, 0.002847956986
2301, 0.04888198216, 0.05219423356, 0.002847956986
2302, 0.04876867705, 0.05213271391, 0.002847956986
2303, 0.04865874691, 0.05206534864, 0.002847956986
2304, 0.04855249306, 0.05199232239, 0.002847956986
2305, 0.04845020672, 0.05191383532, 0.002847956986
2306, 0.04835216825, 0.05183010256, 0.002847956986
2307, 0.04825864638, 0.05174135362, 0.002847956986
2308, 0.04816989744, 0.05164783175, 0.002847956986
2309, 0.04808616468, 0.05154979328, 0.002847956986
2310, 0.04800767761, 0.05144750694, 0.002847956986
2311, 0.04793465136, 0.05134125309, 0.002847956986
2312, 0.04786728609, 0.05123132295, 0.002847956986
2313, 0.04780576644, 0.05111801784, 0.002847956986
2314, 0.04775026102, 0.05100164833, 0.002847956986
2315, 0.04770092199, 0.05088253336, 0.002847956986
2316, 0.04765788457, 0.05076099943, 0.002847956986
2317, 0.04762126672, 0.05063737966, 0.002847956986
2318, 0.04759116882, 0.05051201287, 0.002847956986
2319, 0.04756767336, 0.05038524269, 0.002847956986
2320, 0.04755084473, 0.05025741659, 0.002847956986
2321, 0.04754072907, 0.05012888493, 0.002847956986
2322, 0.0475373541, 0.05, 0.002847956986
2323, 0.04754072907, 0.04987111507, 0.002847956986
2324, 0.04755084473, 0.04974258341, 0.002847956986
2325, 0.04756767336, 0.04961475731, 0.002847956986
2326, 0.04759116882, 0.04948798713, 0.002847956986
2327, 0.04762126672, 0.04936262034, 0.002847956986
2328, 0.04765788457, 0.04923900057, 0.002847956986
2329, 0.04770092199, 0.04911746664, 0.002847956986
2330, 0.04775026102, 0.04899835167, 0.002847956986
2331, 0.04780576644, 0.04888198216, 0.002847956986
2332, 0.04786728609, 0.04876867705, 0.002847956986
2333, 0.04793465136, 0.04865874691, 0.002847956986
2334, 0.04800767761, 0.04855249306, 0.002847956986
2335, 0.04808616468, 0.04845020672, 0.002847956986
2336, 0.04816989744, 0.04835216825, 0.002847956986
2337, 0.04825864638, 0.04825864638, 0.002847956986
2338, 0.04835216825, 0.04816989744, 0.002847956986
2339, 0.04845020672, 0.04808616468, 0.002847956986
2340, 0.04855249306, 0.04800767761, 0.002847956986
2341, 0.04865874691, 0.04793465136, 0.002847956986
2342, 0.04876867705, 0.04786728609, 0.002847956986
2343, 0.04888198216, 0.04780576644, 0.002847956986
2344, 0.04899835167, 0.04775026102, 0.002847956986
2345, 0.04911746664, 0.04770092199, 0.002847956986
2346, 0.04923900057, 0.04765788457, 0.002847956986
2347, 0.04936262034, 0.04762126672, 0.002847956986
2348, 0.04948798713, 0.04759116882, 0.002847956986
2349, 0.04961475731, 0.04756767336, 0.002847956986
2350, 0.04974258341, 0.04755084473, 0.002847956986
2351, 0.04987111507, 0.04754072907, 0.002847956986
2352, 0.05, 0.0475373541, 0.002847956986
2353, 0.05012888493, 0.04754072907, 0.002847956986
2354, 0.05025741659, 0.04755084473, 0.002847956986
2355, 0.05038524269, 0.04756767336, 0.002847956986
2356, 0.05051201287, 0.04759116882, 0.002847956986
2357, 0.05063737966, 0.04762126672, 0.002847956986
2358, 0.05076099943, 0.04765788457, 0.002847956986
2359, 0.05088253336, 0.04770092199, 0.002847956986
2360, 0.05100164833, 0.04775026102, 0.002847956986
2361, 0.05111801784, 0.04780576644, 0.002847956986
2362, 0.05123132295, 0.04786728609, 0.002847956986
2363, 0.05134125309, 0.04793465136, 0.002847956986
2364, 0.05144750694, 0.04800767761, 0.002847956986
2365, 0.05154979328, 0.04808616468, 0.002847956986
2366, 0.05164783175, 0.04816989744, 0.002847956986
2367, 0.05174135362, 0.04825864638, 0.002847956986
2368, 0.05183010256, 0.04835216825, 0.002847956986
2369, 0.05191383532, 0.04845020672, 0.002847956986
2370, 0.05199232239, 0.04855249306, 0.002847956986
2371, 0.05206534864, 0.04865874691, 0.002847956986
2372, 0.05213271391, 0.04876867705, 0.002847956986
2373, 0.05219423356, 0.04888198216, 0.002847956986
2374, 0.05224973898, 0.04899835167, 0.002847956986
2375, 0.05229907801, 0.04911746664, 0.002847956986
2376, 0.05234211543, 0.04923900057, 0.002847956986
2377, 0.05237873328, 0.04936262034, 0.002847956986
2378, 0.05240883118, 0.04948798713, 0.002847956986
2379, 0.05243232664, 0.04961475731, 0.002847956986
2380, 0.05244915527, 0.04974258341, 0.002847956986
2381, 0.05245927093, 0.04987111507, 0.002847956986
2382, 0.05257115044, 0.05, 0.002935822228
2383, 0.05256762677, 0.05013456362, 0.002935822228
2384, 0.05255706541, 0.0502687584, 0.002935822228
2385, 0.05253949531, 0.05040221654, 0.002935822228
2386, 0.05251496463, 0.05053457224, 0.002935822228
2387, 0.05248354061, 0.0506654627, 0.002935822228
2388, 0.05244530938, 0.05079452918, 0.002935822228
2389, 0.05240037572, 0.05092141791, 0.002935822228
2390, 0.0523488628, 0.0510457811, 0.002935822228
2391, 0.05229091182, 0.05116727787, 0.002935822228
2392, 0.0522266816, 0.05128557522, 0.002935822228
2393, 0.0521563482, 0.05140034889, 0.002935822228
2394, 0.0520801044, 0.05151128431, 0.002935822228
2395, 0.05199815918, 0.0516180774, 0.002935822228
2396, 0.05191073714, 0.05172043545, 0.002935822228
2397, 0.05181807791, 0.05181807791, 0.002935822228
2398, 0.05172043545, 0.05191073714, 0.002935822228
2399, 0.0516180774, 0.05199815918, 0.002935822228
2400, 0.05151128431, 0.0520801044, 0.002935822228
2401, 0.05140034889, 0.0521563482, 0.002935822228
2402, 0.05128557522, 0.0522266816, 0.002935822228
2403, 0.05116727787, 0.05229091182, 0.002935822228
2404, 0.0510457811, 0.0523488628, 0.002935822228
2405, 0.05092141791, 0.05240037572, 0.002935822228
2406, 0.05079452918, 0.05244530938, 0.002935822228
2407, 0.0506654627, 0.05248354061, 0.002935822228
2408, 0.05053457224, 0.05251496463, 0.002935822228
2409, 0.05040221654, 0.05253949531, 0.002935822228
2410, 0.0502687584, 0.05255706541, 0.002935822228
2411, 0.05013456362, 0.05256762677, 0.002935822228
2412, 0.05, 0.05257115044, 0.002935822228
2413, 0.04986543638, 0.05256762677, 0.002935822228
2414, 0.0497312416, 0.05255706541, 0.002935822228
2415, 0.04959778346, 0.05253949531, 0.002935822228
2416, 0.04946542776, 0.05251496463, 0.002935822228
2417, 0.0493345373, 0.05248354061, 0.002935822228
2418, 0.04920547082, 0.05244530938, 0.002935822228
2419, 0.04907858209, 0.05240037572, 0.002935822228
2420, 0.0489542189, 0.0523488628, 0.002935822228
2421, 0.04883272213, 0.05229091182, 0.002935822228
2422, 0.04871442478, 0.0522266816, 0.002935822228
2423, 0.04859965111, 0.0521563482, 0.002935822228
2424, 0.04848871569, 0.0520801044, 0.002935822228
2425, 0.0483819226, 0.05199815918, 0.002935822228
2426, 0.04827956455, 0.05191073714, 0.002935822228
2427, 0.04818192209, 0.05181807791, 0.002935822228
2428, 0.04808926286, 0.05172043545, 0.002935822228
2429, 0.04800184082, 0.0516180774, 0.002935822228
2430, 0.0479198956, 0.05151128431, 0.002935822228
2431, 0.0478436518, 0.05140034889, 0.002935822228
2432, 0.0477733184, 0.05128557522, 0.002935822228
2433, 0.04770908818, 0.05116727787, 0.002935822228
2434, 0.0476511372, 0.0510457811, 0.002935822228
2435, 0.04759962428, 0.05092141791, 0.002935822228
2436, 0.04755469062, 0.05079452918, 0.002935822228
2437, 0.04751645939, 0.0506654627, 0.002935822228
2438, 0.04748503537, 0.05053457224, 0.002935822228
2439, 0.04746050469, 0.05040221654, 0.002935822228
2440, 0.04744293459, 0.0502687584, 0.002935822228
2441, 0.04743237323, 0.05013456362, 0.002935822228
2442, 0.04742884956, 0.05, 0.002935822228
2443, 0.04743237323, 0.04986543638, 0.002935822228
2444, 0.04744293459, 0.0497312416, 0.002935822228
2445, 0.04746050469, 0.04959778346, 0.002935822228
2446, 0.04748503537, 0.04946542776, 0.002935822228
2447, 0.04751645939, 0.0493345373, 0.002935822228
2448, 0.04755469062, 0.04920547082, 0.002935822228
2449, 0.04759962428, 0.04907858209, 0.002935822228
2450, 0.0476511372, 0.0489542189, 0.002935822228
2451, 0.04770908818, 0.04883272213, 0.002935822228
2452, 0.0477733184, 0.04871442478, 0.002935822228
2453, 0.0478436518, 0.04859965111, 0.002935822228
2454, 0.0479198956, 0.04848871569, 0.002935822228
2455, 0.04800184082, 0.0483819226, 0.002935822228
2456, 0.04808926286, 0.04827956455, 0.002935822228
2457, 0.04818192209, 0.04818192209, 0.002935822228
2458, 0.04827956455, 0.04808926286, 0.002935822228
2459, 0.0483819226, 0.04800184082, 0.002935822228
2460, 0.04848871569, 0.0479198956, 0.002935822228
2461, 0.04859965111, 0.0478436518, 0.002935822228
2462, 0.04871442478, 0.0477733184, 0.002935822228
2463, 0.04883272213, 0.04770908818, 0.002935822228
2464, 0.0489542189, 0.0476511372, 0.002935822228
2465, 0.04907858209, 0.04759962428, 0.002935822228
2466, 0.04920547082, 0.04755469062, 0.002935822228
2467, 0.0493345373, 0.04751645939, 0.002935822228
2468, 0.04946542776, 0.04748503537, 0.002935822228
2469, 0.04959778346, 0.04746050469, 0.002935822228
2470, 0.0497312416, 0.04744293459, 0.002935822228
2471, 0.04986543638, 0.04743237323, 0.002935822228
2472, 0.05, 0.04742884956, 0.002935822228
2473, 0.05013456362, 0.04743237323, 0.002935822228
2474, 0.0502687584, 0.04744293459, 0.002935822228
2475, 0.05040221654, 0.04746050469, 0.002935822228
2476, 0.05053457224, 0.04748503537, 0.002935822228
2477, 0.0506654627, 0.04751645939, 0.002935822228
2478, 0.05079452918, 0.04755469062, 0.002935822228
2479, 0.05092141791, 0.04759962428, 0.002935822228
2480, 0.0510457811, 0.0476511372, 0.002935822228
2481, 0.05116727787, 0.04770908818, 0.002935822228
2482, 0.05128557522, 0.0477733184, 0.002935822228
2483, 0.05140034889, 0.0478436518, 0.002935822228
2484, 0.05151128431, 0.0479198956, 0.002935822228
2485, 0.0516180774, 0.04800184082, 0.002935822228
2486, 0.05172043545, 0.04808926286, 0.002935822228
2487, 0.05181807791, 0.04818192209, 0.002935822228
2488, 0.05191073714, 0.04827956455, 0.002935822228
2489, 0.05199815918, 0.0483819226, 0.002935822228
2490, 0.0520801044, 0.04848871569, 0.002935822228
2491, 0.0521563482, 0.04859965111, 0.002935822228
2492, 0.0522266816, 0.04871442478, 0.002935822228
2493, 0.05229091182, 0.04883272213, 0.002935822228
2494, 0.0523488628, 0.0489542189, 0.002935822228
2495, 0.05240037572, 0.04907858209, 0.002935822228
2496, 0.05244530938, 0.04920547082, 0.002935822228
2497, 0.05248354061, 0.0493345373, 0.002935822228
2498, 0.05251496463, 0.04946542776, 0.002935822228
2499, 0.05253949531, 0.04959778346, 0.002935822228
2500, 0.05255706541, 0.0497312416, 0.002935822228
2501, 0.05256762677, 0.04986543638, 0.002935822228
2502, 0.05267652243, 0.05, 0.003027420698
2503, 0.05267285434, 0.05014007836, 0.003027420698
2504, 0.05266186016, 0.05027977278, 0.003027420698
2505, 0.05264356999, 0.05041870035, 0.003027420698
2506, 0.05261803399, 0.0505564803, 0.003027420698
2507, 0.05258532214, 0.05069273498, 0.003027420698
2508, 0.05254552409, 0.05082709092, 0.003027420698
2509, 0.05249874895, 0.05095917985, 0.003027420698
2510, 0.0524451249, 0.05108863975, 0.003027420698
2511, 0.05238479894, 0.05121511575, 0.003027420698
2512, 0.05231793641, 0.05133826121, 0.003027420698
2513, 0.05224472058, 0.05145773859, 0.003027420698
2514, 0.05216535213, 0.05157322041, 0.003027420698
2515, 0.05208004859, 0.05168439014, 0.003027420698
2516, 0.05198904379, 0.05179094307, 0.003027420698
2517, 0.05189258716, 0.05189258716, 0.003027420698
2518, 0.05179094307, 0.05198904379, 0.003027420698
2519, 0.05168439014, 0.05208004859, 0.003027420698
2520, 0.05157322041, 0.05216535213, 0.003027420698
2521, 0.05145773859, 0.05224472058, 0.003027420698
2522, 0.05133826121, 0.05231793641, 0.003027420698
2523, 0.05121511575, 0.05238479894, 0.003027420698
2524, 0.05108863975, 0.0524451249, 0.003027420698
2525, 0.05095917985, 0.05249874895, 0.003027420698
2526, 0.05082709092, 0.05254552409, 0.003027420698
2527, 0.05069273498, 0.05258532214, 0.003027420698
2528, 0.0505564803, 0.05261803399, 0.003027420698
2529, 0.05041870035, 0.05264356999, 0.003027420698
2530, 0.05027977278, 0.05266186016, 0.003027420698
2531, 0.05014007836, 0.05267285434, 0.003027420698
2532, 0.05, 0.05267652243, 0.003027420698
2533, 0.04985992164, 0.05267285434, 0.003027420698
2534, 0.04972022722, 0.05266186016, 0.003027420698
2535, 0.04958129965, 0.05264356999, 0.003027420698
2536, 0.0494435197, 0.05261803399, 0.003027420698
2537, 0.04930726502, 0.05258532214, 0.003027420698
2538, 0.04917290908, 0.05254552409, 0.003027420698
2539, 0.04904082015, 0.05249874895, 0.003027420698
2540, 0.04891136025, 0.0524451249, 0.003027420698
2541, 0.04878488425, 0.05238479894, 0.003027420698
2542, 0.04866173879, 0.05231793641, 0.003027420698
2543, 0.04854226141, 0.05224472058, 0.003027420698
2544, 0.04842677959, 0.05216535213, 0.003027420698
2545, 0.04831560986, 0.05208004859, 0.003027420698
2546, 0.04820905693, 0.05198904379, 0.003027420698
2547, 0.04810741284, 0.05189258716, 0.003027420698
2548, 0.04801095621, 0.05179094307, 0.003027420698
2549, 0.04791995141, 0.05168439014, 0.003027420698
2550, 0.04783464787, 0.05157322041, 0.003027420698
2551, 0.04775527942, 0.05145773859, 0.003027420698
2552, 0.04768206359, 0.05133826121, 0.003027420698
2553, 0.04761520106, 0.05121511575, 0.003027420698
2554, 0.0475548751, 0.05108863975, 0.003027420698
2555, 0.04750125105, 0.05095917985, 0.003027420698
2556, 0.04745447591, 0.05082709092, 0.003027420698
2557, 0.04741467786, 0.05069273498, 0.003027420698
2558, 0.04738196601, 0.0505564803, 0.003027420698
2559, 0.04735643001, 0.05041870035, 0.003027420698
2560, 0.04733813984, 0.05027977278, 0.003027420698
2561, 0.04732714566, 0.05014007836, 0.003027420698
2562, 0.04732347757, 0.05, 0.003027420698
2563, 0.04732714566, 0.04985992164, 0.003027420698
2564, 0.04733813984, 0.04972022722, 0.003027420698
2565, 0.04735643001, 0.04958129965, 0.003027420698
2566, 0.04738196601, 0.0494435197, 0.003027420698
2567, 0.04741467786, 0.04930726502, 0.003027420698
2568, 0.04745447591, 0.04917290908, 0.003027420698
2569, 0.04750125105, 0.04904082015, 0.003027420698
2570, 0.0475548751, 0.04891136025, 0.003027420698
2571, 0.04761520106, 0.04878488425, 0.003027420698
2572, 0.04768206359, 0.04866173879, 0.003027420698
2573, 0.04775527942, 0.04854226141, 0.003027420698
2574, 0.04783464787, 0.04842677959, 0.003027420698
2575, 0.04791995141, 0.04831560986, 0.003027420698
2576, 0.04801095621, 0.04820905693, 0.003027420698
2577, 0.04810741284, 0.04810741284, 0.003027420698
2578, 0.04820905693, 0.04801095621, 0.003027420698
2579, 0.04831560986, 0.04791995141, 0.003027420698
2580, 0.04842677959, 0.04783464787, 0.003027420698
2581, 0.04854226141, 0.04775527942, 0.003027420698
2582, 0.04866173879, 0.04768206359, 0.003027420698
2583, 0.04878488425, 0.04761520106, 0.003027420698
2584, 0.04891136025, 0.0475548751, 0.003027420698
2585, 0.04904082015, 0.04750125105, 0.003027420698
2586, 0.04917290908, 0.04745447591, 0.003027420698
2587, 0.04930726502, 0.04741467786, 0.003027420698
2588, 0.0494435197, 0.04738196601, 0.003027420698
2589, 0.04958129965, 0.04735643001, 0.003027420698
2590, 0.04972022722, 0.04733813984, 0.003027420698
2591, 0.04985992164, 0.04732714566, 0.003027420698
2592, 0.05, 0.04732347757, 0.003027420698
2593, 0.05014007836, 0.04732714566, 0.003027420698
2594, 0.05027977278, 0.04733813984, 0.003027420698
2595, 0.05041870035, 0.04735643001, 0.003027420698
2596, 0.0505564803, 0.04738196601, 0.003027420698
2597, 0.05069273498, 0.04741467786, 0.003027420698
2598, 0.05082709092, 0.04745447591, 0.003027420698
2599, 0.05095917985, 0.04750125105, 0.003027420698
2600, 0.05108863975, 0.0475548751, 0.003027420698
2601, 0.05121511575, 0.04761520106, 0.003027420698
2602, 0.05133826121, 0.04768206359, 0.003027420698
2603, 0.05145773859, 0.04775527942, 0.003027420698
2604, 0.05157322041, 0.04783464787, 0.003027420698
2605, 0.05168439014, 0.04791995141, 0.003027420698
2606, 0.05179094307, 0.04801095621, 0.003027420698
2607, 0.05189258716, 0.04810741284, 0.003027420698
2608, 0.05198904379, 0.04820905693, 0.003027420698
2609, 0.05208004859, 0.04831560986, 0.003027420698
2610, 0.05216535213, 0.04842677959, 0.003027420698
2611, 0.05224472058, 0.04854226141, 0.003027420698
2612, 0.05231793641, 0.04866173879, 0.003027420698
2613, 0.05238479894, 0.04878488425, 0.003027420698
2614, 0.0524451249, 0.04891136025, 0.003027420698
2615, 0.05249874895, 0.04904082015, 0.003027420698
2616, 0.05254552409, 0.04917290908, 0.003027420698
2617, 0.05258532214, 0.04930726502, 0.003027420698
2618, 0.05261803399, 0.0494435197, 0.003027420698
2619, 0.05264356999, 0.04958129965, 0.003027420698
2620, 0.05266186016, 0.04972022722, 0.003027420698
2621, 0.05267285434, 0.04985992164, 0.003027420698
2622, 0.05277863348, 0.05, 0.003122640799
2623, 0.05277482546, 0.05014542244, 0.003122640799
2624, 0.05276341184, 0.05029044629, 0.003122640799
2625, 0.05274442389, 0.05043467404, 0.003122640799
2626, 0.05271791367, 0.05057771039, 0.003122640799
2627, 0.05268395384, 0.05071916326, 0.003122640799
2628, 0.05264263748, 0.05085864497, 0.003122640799
2629, 0.05259407783, 0.05099577318, 0.003122640799
2630, 0.052538408, 0.05113017205, 0.003122640799
2631, 0.05247578056, 0.0512614732, 0.003122640799
2632, 0.05240636718, 0.05138931674, 0.003122640799
2633, 0.05233035812, 0.05151335226, 0.003122640799
2634, 0.05224796171, 0.05163323978, 0.003122640799
2635, 0.05215940379, 0.05174865071, 0.003122640799
2636, 0.05206492709, 0.05185926871, 0.003122640799
2637, 0.05196479058, 0.05196479058, 0.003122640799
2638, 0.05185926871, 0.05206492709, 0.003122640799
2639, 0.05174865071, 0.05215940379, 0.003122640799
2640, 0.05163323978, 0.05224796171, 0.003122640799
2641, 0.05151335226, 0.05233035812, 0.003122640799
2642, 0.05138931674, 0.05240636718, 0.003122640799
2643, 0.0512614732, 0.05247578056, 0.003122640799
2644, 0.05113017205, 0.052538408, 0.003122640799
2645, 0.05099577318, 0.05259407783, 0.003122640799
2646, 0.05085864497, 0.05264263748, 0.003122640799
2647, 0.05071916326, 0.05268395384, 0.003122640799
2648, 0.05057771039, 0.05271791367, 0.003122640799
2649, 0.05043467404, 0.05274442389, 0.003122640799
2650, 0.05029044629, 0.05276341184, 0.003122640799
2651, 0.05014542244, 0.05277482546, 0.003122640799
2652, 0.05, 0.05277863348, 0.003122640799
2653, 0.04985457756, 0.05277482546, 0.003122640799
2654, 0.04970955371, 0.05276341184, 0.003122640799
2655, 0.04956532596, 0.05274442389, 0.003122640799
2656, 0.04942228961, 0.05271791367, 0.003122640799
2657, 0.04928083674, 0.05268395384, 0.003122640799
2658, 0.04914135503, 0.05264263748, 0.003122640799
2659, 0.04900422682, 0.05259407783, 0.003122640799
2660, 0.04886982795, 0.052538408, 0.003122640799
2661, 0.0487385268, 0.05247578056, 0.003122640799
2662, 0.04861068326, 0.05240636718, 0.003122640799
2663, 0.04848664774, 0.05233035812, 0.003122640799
2664, 0.04836676022, 0.05224796171, 0.003122640799
2665, 0.04825134929, 0.05215940379, 0.003122640799
2666, 0.04814073129, 0.05206492709, 0.003122640799
2667, 0.04803520942, 0.05196479058, 0.003122640799
2668, 0.04793507291, 0.05185926871, 0.003122640799
2669, 0.04784059621, 0.05174865071, 0.003122640799
2670, 0.04775203829, 0.05163323978, 0.003122640799
2671, 0.04766964188, 0.05151335226, 0.003122640799
2672, 0.04759363282, 0.05138931674, 0.003122640799
2673, 0.04752421944, 0.0512614732, 0.003122640799
2674, 0.047461592, 0.05113017205, 0.003122640799
2675, 0.04740592217, 0.05099577318, 0.003122640799
2676, 0.04735736252, 0.05085864497, 0.003122640799
2677, 0.04731604616, 0.05071916326, 0.003122640799
2678, 0.04728208633, 0.05057771039, 0.003122640799
2679, 0.04725557611, 0.05043467404, 0.003122640799
2680, 0.04723658816, 0.05029044629, 0.003122640799
2681, 0.04722517454, 0.05014542244, 0.003122640799
2682, 0.04722136652, 0.05, 0.003122640799
2683, 0.04722517454, 0.04985457756, 0.003122640799
2684, 0.04723658816, 0.04970955371, 0.003122640799
2685, 0.04725557611, 0.04956532596, 0.003122640799
2686, 0.04728208633, 0.04942228961, 0.003122640799
2687, 0.04731604616, 0.04928083674, 0.003122640799
2688, 0.04735736252, 0.04914135503, 0.003122640799
2689, 0.04740592217, 0.04900422682, 0.003122640799
2690, 0.047461592, 0.04886982795, 0.003122640799
2691, 0.04752421944, 0.0487385268, 0.003122640799
2692, 0.04759363282, 0.04861068326, 0.003122640799
2693, 0.04766964188, 0.04848664774, 0.003122640799
2694, 0.04775203829, 0.04836676022, 0.003122640799
2695, 0.04784059621, 0.04825134929, 0.003122640799
2696, 0.04793507291, 0.04814073129, 0.003122640799
2697, 0.04803520942, 0.04803520942, 0.003122640799
2698, 0.04814073129, 0.04793507291, 0.003122640799
2699, 0.04825134929, 0.04784059621, 0.003122640799
2700, 0.04836676022, 0.04775203829, 0.003122640799
2701, 0.04848664774, 0.04766964188, 0.003122640799
2702, 0.04861068326, 0.04759363282, 0.003122640799
2703, 0.0487385268, 0.04752421944, 0.003122640799
2704, 0.04886982795, 0.047461592, 0.003122640799
2705, 0.04900422682, 0.04740592217, 0.003122640799
2706, 0.04914135503, 0.04735736252, 0.003122640799
2707, 0.04928083674, 0.04731604616, 0.003122640799
2708, 0.04942228961, 0.04728208633, 0.003122640799
2709, 0.04956532596, 0.04725557611, 0.003122640799
2710, 0.04970955371, 0.04723658816, 0.003122640799
2711, 0.04985457756, 0.04722517454, 0.003122640799
2712, 0.05, 0.04722136652, 0.003122640799
2713, 0.05014542244, 0.04722517454, 0.003122640799
2714, 0.05029044629, 0.04723658816, 0.003122640799
2715, 0.05043467404, 0.04725557611, 0.003122640799
2716, 0.05057771039, 0.04728208633, 0.003122640799
2717, 0.05071916326, 0.04731604616, 0.003122640799
2718, 0.05085864497, 0.04735736252, 0.003122640799
2719, 0.05099577318, 0.04740592217, 0.003122640799
2720, 0.05113017205, 0.047461592, 0.003122640799
2721, 0.0512614732, 0.04752421944, 0.003122640799
2722, 0.05138931674, 0.04759363282, 0.003122640799
2723, 0.05151335226, 0.04766964188, 0.003122640799
2724, 0.05163323978, 0.04775203829, 0.003122640799
2725, 0.05174865071, 0.04784059621, 0.003122640799
2726, 0.05185926871, 0.04793507291, 0.003122640799
2727, 0.05196479058, 0.04803520942, 0.003122640799
2728, 0.05206492709, 0.04814073129, 0.003122640799
2729, 0.05215940379, 0.04825134929, 0.003122640799
2730, 0.05224796171, 0.04836676022, 0.003122640799
2731, 0.05233035812, 0.04848664774, 0.003122640799
2732, 0.05240636718, 0.04861068326, 0.003122640799
2733, 0.05247578056, 0.0487385268, 0.003122640799
2734, 0.052538408, 0.04886982795, 0.003122640799
2735, 0.05259407783, 0.04900422682, 0.003122640799
2736, 0.05264263748, 0.04914135503, 0.003122640799
2737, 0.05268395384, 0.04928083674, 0.003122640799
2738, 0.05271791367, 0.04942228961, 0.003122640799
2739, 0.05274442389, 0.04956532596, 0.003122640799
2740, 0.05276341184, 0.04970955371, 0.003122640799
2741, 0.05277482546, 0.04985457756, 0.003122640799
2742, 0.0528773592, 0.05, 0.003221366518
2743, 0.05287341588, 0.05015058935, 0.003221366518
2744, 0.05286159673, 0.05030076594, 0.003221366518
2745, 0.05284193413, 0.05045011815, 0.003221366518
2746, 0.052814482, 0.05059823662, 0.003221366518
2747, 0.05277931556, 0.05074471536, 0.003221366518
2748, 0.05273653122, 0.05088915289, 0.003221366518
2749, 0.05268624623, 0.05103115332, 0.003221366518
2750, 0.05262859843, 0.05117032742, 0.003221366518
2751, 0.05256374582, 0.05130629374, 0.003221366518
2752, 0.05249186616, 0.0514386796, 0.003221366518
2753, 0.05241315648, 0.05156712214, 0.003221366518
2754, 0.05232783249, 0.0516912693, 0.003221366518
2755, 0.05223612808, 0.05181078082, 0.003221366518
2756, 0.0521382946, 0.05192532911, 0.003221366518
2757, 0.0520346002, 0.0520346002, 0.003221366518
2758, 0.05192532911, 0.0521382946, 0.003221366518
2759, 0.05181078082, 0.05223612808, 0.003221366518
2760, 0.0516912693, 0.05232783249, 0.003221366518
2761, 0.05156712214, 0.05241315648, 0.003221366518
2762, 0.0514386796, 0.05249186616, 0.003221366518
2763, 0.05130629374, 0.05256374582, 0.003221366518
2764, 0.05117032742, 0.05262859843, 0.003221366518
2765, 0.05103115332, 0.05268624623, 0.003221366518
2766, 0.05088915289, 0.05273653122, 0.003221366518
2767, 0.05074471536, 0.05277931556, 0.003221366518
2768, 0.05059823662, 0.052814482, 0.003221366518
2769, 0.05045011815, 0.05284193413, 0.003221366518
2770, 0.05030076594, 0.05286159673, 0.003221366518
2771, 0.05015058935, 0.05287341588, 0.003221366518
2772, 0.05, 0.0528773592, 0.003221366518
2773, 0.04984941065, 0.05287341588, 0.003221366518
2774, 0.04969923406, 0.05286159673, 0.003221366518
2775, 0.04954988185, 0.05284193413, 0.003221366518
2776, 0.04940176338, 0.052814482, 0.003221366518
2777, 0.04925528464, 0.05277931556, 0.003221366518
2778, 0.04911084711, 0.05273653122, 0.003221366518
2779, 0.04896884668, 0.05268624623, 0.003221366518
2780, 0.04882967258, 0.05262859843, 0.003221366518
2781, 0.04869370626, 0.05256374582, 0.003221366518
2782, 0.0485613204, 0.05249186616, 0.003221366518
2783, 0.04843287786, 0.05241315648, 0.003221366518
2784, 0.0483087307, 0.05232783249, 0.003221366518
2785, 0.04818921918, 0.05223612808, 0.003221366518
2786, 0.04807467089, 0.0521382946, 0.003221366518
2787, 0.0479653998, 0.0520346002, 0.003221366518
2788, 0.0478617054, 0.05192532911, 0.003221366518
2789, 0.04776387192, 0.05181078082, 0.003221366518
2790, 0.04767216751, 0.0516912693, 0.003221366518
2791, 0.04758684352, 0.05156712214, 0.003221366518
2792, 0.04750813384, 0.0514386796, 0.003221366518
2793, 0.04743625418, 0.05130629374, 0.003221366518
2794, 0.04737140157, 0.05117032742, 0.003221366518
2795, 0.04731375377, 0.05103115332, 0.003221366518
2796, 0.04726346878, 0.05088915289, 0.003221366518
2797, 0.04722068444, 0.05074471536, 0.003221366518
2798, 0.047185518, 0.05059823662, 0.003221366518
2799, 0.04715806587, 0.05045011815, 0.003221366518
2800, 0.04713840327, 0.05030076594, 0.003221366518
2801, 0.04712658412, 0.05015058935, 0.003221366518
2802, 0.0471226408, 0.05, 0.003221366518
2803, 0.04712658412, 0.04984941065, 0.003221366518
2804, 0.04713840327, 0.04969923406, 0.003221366518
2805, 0.04715806587, 0.04954988185, 0.003221366518
2806, 0.047185518, 0.04940176338, 0.003221366518
2807, 0.04722068444, 0.04925528464, 0.003221366518
2808, 0.04726346878, 0.04911084711, 0.003221366518
2809, 0.04731375377, 0.04896884668, 0.003221366518
2810, 0.04737140157, 0.04882967258, 0.003221366518
2811, 0.04743625418, 0.04869370626, 0.003221366518
2812, 0.04750813384, 0.0485613204, 0.003221366518
2813, 0.04758684352, 0.04843287786, 0.003221366518
2814, 0.04767216751, 0.0483087307, 0.003221366518
2815, 0.04776387192, 0.04818921918, 0.003221366518
2816, 0.0478617054, 0.04807467089, 0.003221366518
2817, 0.0479653998, 0.0479653998, 0.003221366518
2818, 0.04807467089, 0.0478617054, 0.003221366518
2819, 0.04818921918, 0.04776387192, 0.003221366518
2820, 0.0483087307, 0.04767216751, 0.003221366518
2821, 0.04843287786, 0.04758684352, 0.003221366518
2822, 0.0485613204, 0.04750813384, 0.003221366518
2823, 0.04869370626, 0.04743625418, 0.003221366518
2824, 0.04882967258, 0.04737140157, 0.003221366518
2825, 0.04896884668, 0.04731375377, 0.003221366518
2826, 0.04911084711, 0.04726346878, 0.003221366518
2827, 0.04925528464, 0.04722068444, 0.003221366518
2828, 0.04940176338, 0.047185518, 0.003221366518
2829, 0.04954988185, 0.04715806587, 0.003221366518
2830, 0.04969923406, 0.04713840327, 0.003221366518
2831, 0.04984941065, 0.04712658412, 0.003221366518
2832, 0.05, 0.0471226408, 0.003221366518
2833, 0.05015058935, 0.04712658412, 0.003221366518
2834, 0.05030076594, 0.04713840327, 0.003221366518
2835, 0.05045011815, 0.04715806587, 0.003221366518
2836, 0.05059823662, 0.047185518, 0.003221366518
2837, 0.05074471536, 0.04722068444, 0.003221366518
2838, 0.05088915289, 0.04726346878, 0.003221366518
2839, 0.05103115332, 0.04731375377, 0.003221366518
2840, 0.05117032742, 0.04737140157, 0.003221366518
2841, 0.05130629374, 0.04743625418, 0.003221366518
2842, 0.0514386796, 0.04750813384, 0.003221366518
2843, 0.05156712214, 0.04758684352, 0.003221366518
2844, 0.0516912693, 0.04767216751, 0.003221366518
2845, 0.05181078082, 0.04776387192, 0.003221366518
2846, 0.05192532911, 0.0478617054, 0.003221366518
2847, 0.0520346002, 0.0479653998, 0.003221366518
2848, 0.0521382946, 0.04807467089, 0.003221366518
2849, 0.05223612808, 0.04818921918, 0.003221366518
2850, 0.05232783249, 0.0483087307, 0.003221366518
2851, 0.05241315648, 0.04843287786, 0.003221366518
2852, 0.05249186616, 0.0485613204, 0.003221366518
2853, 0.05256374582, 0.04869370626, 0.003221366518
2854, 0.05262859843, 0.04882967258, 0.003221366518
2855, 0.05268624623, 0.04896884668, 0.003221366518
2856, 0.05273653122, 0.04911084711, 0.003221366518
2857, 0.05277931556, 0.04925528464, 0.003221366518
2858, 0.052814482, 0.04940176338, 0.003221366518
2859, 0.05284193413, 0.04954988185, 0.003221366518
2860, 0.05286159673, 0.04969923406, 0.003221366518
2861, 0.05287341588, 0.04984941065, 0.003221366518
2862, 0.0529725793, 0.05, 0.003323477575
2863, 0.05296850549, 0.05015557278, 0.003323477575
2864, 0.0529562952, 0.05031071915, 0.003323477575
2865, 0.05293598192, 0.05046501385, 0.003323477575
2866, 0.05290762131, 0.05061803399, 0.003323477575
2867, 0.05287129112, 0.05076936014, 0.003323477575
2868, 0.05282709092, 0.05091857752, 0.003323477575
2869, 0.05277514185, 0.05106527715, 0.003323477575
2870, 0.05271558632, 0.05120905693, 0.003323477575
2871, 0.05264858755, 0.05134952276, 0.003323477575
2872, 0.05257432919, 0.05148628965, 0.003323477575
2873, 0.05249301477, 0.05161898272, 0.003323477575
2874, 0.05240486717, 0.05174723827, 0.003323477575
2875, 0.052310128, 0.05187070477, 0.003323477575
2876, 0.05220905693, 0.05198904379, 0.003323477575
2877, 0.05210193098, 0.05210193098, 0.003323477575
2878, 0.05198904379, 0.05220905693, 0.003323477575
2879, 0.05187070477, 0.052310128, 0.003323477575
2880, 0.05174723827, 0.05240486717, 0.003323477575
2881, 0.05161898272, 0.05249301477, 0.003323477575
2882, 0.05148628965, 0.05257432919, 0.003323477575
2883, 0.05134952276, 0.05264858755, 0.003323477575
2884, 0.05120905693, 0.05271558632, 0.003323477575
2885, 0.05106527715, 0.05277514185, 0.003323477575
2886, 0.05091857752, 0.05282709092, 0.003323477575
2887, 0.05076936014, 0.05287129112, 0.003323477575
2888, 0.05061803399, 0.05290762131, 0.003323477575
2889, 0.05046501385, 0.05293598192, 0.003323477575
2890, 0.05031071915, 0.0529562952, 0.003323477575
2891, 0.05015557278, 0.05296850549, 0.003323477575
2892, 0.05, 0.0529725793, 0.003323477575
2893, 0.04984442722, 0.05296850549, 0.003323477575
2894, 0.04968928085, 0.0529562952, 0.003323477575
2895, 0.04953498615, 0.05293598192, 0.003323477575
2896, 0.04938196601, 0.05290762131, 0.003323477575
2897, 0.04923063986, 0.05287129112, 0.003323477575
2898, 0.04908142248, 0.05282709092, 0.003323477575
2899, 0.04893472285, 0.05277514185, 0.003323477575
2900, 0.04879094307, 0.05271558632, 0.003323477575
2901, 0.04865047724, 0.05264858755, 0.003323477575
2902, 0.04851371035, 0.05257432919, 0.003323477575
2903, 0.04838101728, 0.05249301477, 0.003323477575
2904, 0.04825276173, 0.05240486717, 0.003323477575
2905, 0.04812929523, 0.052310128, 0.003323477575
2906, 0.04801095621, 0.05220905693, 0.003323477575
2907, 0.04789806902, 0.05210193098, 0.003323477575
2908, 0.04779094307, 0.05198904379, 0.003323477575
2909, 0.047689872, 0.05187070477, 0.003323477575
2910, 0.04759513283, 0.05174723827, 0.003323477575
2911, 0.04750698523, 0.05161898272, 0.003323477575
2912, 0.04742567081, 0.05148628965, 0.003323477575
2913, 0.04735141245, 0.05134952276, 0.003323477575
2914, 0.04728441368, 0.05120905693, 0.003323477575
2915, 0.04722485815, 0.05106527715, 0.003323477575
2916, 0.04717290908, 0.05091857752, 0.003323477575
2917, 0.04712870888, 0.05076936014, 0.003323477575
2918, 0.04709237869, 0.05061803399, 0.003323477575
2919, 0.04706401808, 0.05046501385, 0.003323477575
2920, 0.0470437048, 0.05031071915, 0.003323477575
2921, 0.04703149451, 0.05015557278, 0.003323477575
2922, 0.0470274207, 0.05, 0.003323477575
2923, 0.04703149451, 0.04984442722, 0.003323477575
2924, 0.0470437048, 0.04968928085, 0.003323477575
2925, 0.04706401808, 0.04953498615, 0.003323477575
2926, 0.04709237869, 0.04938196601, 0.003323477575
2927, 0.04712870888, 0.04923063986, 0.003323477575
2928, 0.04717290908, 0.04908142248, 0.003323477575
2929, 0.04722485815, 0.04893472285, 0.003323477575
2930, 0.04728441368, 0.04879094307, 0.003323477575
2931, 0.04735141245, 0.04865047724, 0.003323477575
2932, 0.04742567081, 0.04851371035, 0.003323477575
2933, 0.04750698523, 0.04838101728, 0.003323477575
2934, 0.04759513283, 0.04825276173, 0.003323477575
2935, 0.047689872, 0.04812929523, 0.003323477575
2936, 0.04779094307, 0.04801095621, 0.003323477575
2937, 0.04789806902, 0.04789806902, 0.003323477575
2938, 0.04801095621, 0.04779094307, 0.003323477575
2939, 0.04812929523, 0.047689872, 0.003323477575
2940, 0.04825276173, 0.04759513283, 0.003323477575
2941, 0.04838101728, 0.04750698523, 0.003323477575
2942, 0.04851371035, 0.04742567081, 0.003323477575
2943, 0.04865047724, 0.04735141245, 0.003323477575
2944, 0.04879094307, 0.04728441368, 0.003323477575
2945, 0.04893472285, 0.04722485815, 0.003323477575
2946, 0.04908142248, 0.04717290908, 0.003323477575
2947, 0.04923063986, 0.04712870888, 0.003323477575
2948, 0.04938196601, 0.04709237869, 0.003323477575
2949, 0.04953498615, 0.04706401808, 0.003323477575
2950, 0.04968928085, 0.0470437048, 0.003323477575
2951, 0.04984442722, 0.04703149451, 0.003323477575
2952, 0.05, 0.0470274207, 0.003323477575
2953, 0.05015557278, 0.04703149451, 0.003323477575
2954, 0.05031071915, 0.0470437048, 0.003323477575
2955, 0.05046501385, 0.04706401808, 0.003323477575
2956, 0.05061803399, 0.04709237869, 0.003323477575
2957, 0.05076936014, 0.04712870888, 0.003323477575
2958, 0.05091857752, 0.04717290908, 0.003323477575
2959, 0.05106527715, 0.04722485815, 0.003323477575
2960, 0.05120905693, 0.04728441368, 0.003323477575
2961, 0.05134952276, 0.04735141245, 0.003323477575
2962, 0.05148628965, 0.04742567081, 0.003323477575
2963, 0.05161898272, 0.04750698523, 0.003323477575
2964, 0.05174723827, 0.04759513283, 0.003323477575
2965, 0.05187070477, 0.047689872, 0.003323477575
2966, 0.05198904379, 0.04779094307, 0.003323477575
2967, 0.05210193098, 0.04789806902, 0.003323477575
2968, 0.05220905693, 0.04801095621, 0.003323477575
2969, 0.052310128, 0.04812929523, 0.003323477575
2970, 0.05240486717, 0.04825276173, 0.003323477575
2971, 0.05249301477, 0.04838101728, 0.003323477575
2972, 0.05257432919, 0.04851371035, 0.003323477575
2973, 0.05264858755, 0.04865047724, 0.003323477575
2974, 0.05271558632, 0.04879094307, 0.003323477575
2975, 0.05277514185, 0.04893472285, 0.003323477575
2976, 0.05282709092, 0.04908142248, 0.003323477575
2977, 0.05287129112, 0.04923063986, 0.003323477575
2978, 0.05290762131, 0.04938196601, 0.003323477575
2979, 0.05293598192, 0.04953498615, 0.003323477575
2980, 0.0529562952, 0.04968928085, 0.003323477575
2981, 0.05296850549, 0.04984442722, 0.003323477575
2982, 0.05306417777, 0.05, 0.003428849561
2983, 0.05305997842, 0.05016036667, 0.003428849561
2984, 0.05304739189, 0.05032029379, 0.003428849561
2985, 0.05302645266, 0.05047934301, 0.003428849561
2986, 0.05299721814, 0.05063707838, 0.003428849561
2987, 0.05295976845, 0.05079306757, 0.003428849561
2988, 0.05291420624, 0.05094688301, 0.003428849561
2989, 0.05286065639, 0.05109810311, 0.003428849561
2990, 0.05279926569, 0.05124631338, 0.003428849561
2991, 0.05273020239, 0.0513911076, 0.003428849561
2992, 0.05265365579, 0.05153208889, 0.003428849561
2993, 0.05256983571, 0.05166887083, 0.003428849561
2994, 0.05247897189, 0.05180107851, 0.003428849561
2995, 0.05238131338, 0.05192834955, 0.003428849561
2996, 0.05227712786, 0.05205033513, 0.003428849561
2997, 0.05216670088, 0.05216670088, 0.003428849561
2998, 0.05205033513, 0.05227712786, 0.003428849561
2999, 0.05192834955, 0.05238131338, 0.003428849561
3000, 0.05180107851, 0.05247897189, 0.003428849561
3001, 0.05166887083, 0.05256983571, 0.003428849561
3002, 0.05153208889, 0.05265365579, 0.003428849561
3003, 0.0513911076, 0.05273020239, 0.003428849561
3004, 0.05124631338, 0.05279926569, 0.003428849561
3005, 0.05109810311, 0.05286065639, 0.003428849561
3006, 0.05094688301, 0.05291420624, 0.003428849561
3007, 0.05079306757, 0.05295976845, 0.003428849561
3008, 0.05063707838, 0.05299721814, 0.003428849561
3009, 0.05047934301, 0.05302645266, 0.003428849561
3010, 0.05032029379, 0.05304739189, 0.003428849561
3011, 0.05016036667, 0.05305997842, 0.003428849561
3012, 0.05, 0.05306417777, 0.003428849561
3013, 0.04983963333, 0.05305997842, 0.003428849561
3014, 0.04967970621, 0.05304739189, 0.003428849561
3015, 0.04952065699, 0.05302645266, 0.003428849561
3016, 0.04936292162, 0.05299721814, 0.003428849561
3017, 0.04920693243, 0.05295976845, 0.003428849561
3018, 0.04905311699, 0.05291420624, 0.003428849561
3019, 0.04890189689, 0.05286065639, 0.003428849561
3020, 0.04875368662, 0.05279926569, 0.003428849561
3021, 0.0486088924, 0.05273020239, 0.003428849561
3022, 0.04846791111, 0.05265365579, 0.003428849561
3023, 0.04833112917, 0.05256983571, 0.003428849561
3024, 0.04819892149, 0.05247897189, 0.003428849561
3025, 0.04807165045, 0.05238131338, 0.003428849561
3026, 0.04794966487, 0.05227712786, 0.003428849561
3027, 0.04783329912, 0.05216670088, 0.003428849561
3028, 0.04772287214, 0.05205033513, 0.003428849561
3029, 0.04761868662, 0.05192834955, 0.003428849561
3030, 0.04752102811, 0.05180107851, 0.003428849561
3031, 0.04743016429, 0.05166887083, 0.003428849561
3032, 0.04734634421, 0.05153208889, 0.003428849561
3033, 0.04726979761, 0.0513911076, 0.003428849561
3034, 0.04720073431, 0.05124631338, 0.003428849561
3035, 0.04713934361, 0.05109810311, 0.003428849561
3036, 0.04708579376, 0.05094688301, 0.003428849561
3037, 0.04704023155, 0.05079306757, 0.003428849561
3038, 0.04700278186, 0.05063707838, 0.003428849561
3039, 0.04697354734, 0.05047934301, 0.003428849561
3040, 0.04695260811, 0.05032029379, 0.003428849561
3041, 0.04694002158, 0.05016036667, 0.003428849561
3042, 0.04693582223, 0.05, 0.003428849561
3043, 0.04694002158, 0.04983963333, 0.003428849561
3044, 0.04695260811, 0.04967970621, 0.003428849561
3045, 0.04697354734, 0.04952065699, 0.003428849561
3046, 0.04700278186, 0.04936292162, 0.003428849561
3047, 0.04704023155, 0.04920693243, 0.003428849561
3048, 0.04708579376, 0.04905311699, 0.003428849561
3049, 0.04713934361, 0.04890189689, 0.003428849561
3050, 0.04720073431, 0.04875368662, 0.003428849561
3051, 0.04726979761, 0.0486088924, 0.003428849561
3052, 0.04734634421, 0.04846791111, 0.003428849561
3053, 0.04743016429, 0.04833112917, 0.003428849561
3054, 0.04752102811, 0.04819892149, 0.003428849561
3055, 0.04761868662, 0.04807165045, 0.003428849561
3056, 0.04772287214, 0.04794966487, 0.003428849561
3057, 0.04783329912, 0.04783329912, 0.003428849561
3058, 0.04794966487, 0.04772287214, 0.003428849561
3059, 0.04807165045, 0.04761868662, 0.003428849561
3060, 0.04819892149, 0.04752102811, 0.003428849561
3061, 0.04833112917, 0.04743016429, 0.003428849561
3062, 0.04846791111, 0.04734634421, 0.003428849561
3063, 0.0486088924, 0.04726979761, 0.003428849561
3064, 0.04875368662, 0.04720073431, 0.003428849561
3065, 0.04890189689, 0.04713934361, 0.003428849561
3066, 0.04905311699, 0.04708579376, 0.003428849561
3067, 0.04920693243, 0.04704023155, 0.003428849561
3068, 0.04936292162, 0.04700278186, 0.003428849561
3069, 0.04952065699, 0.04697354734, 0.003428849561
3070, 0.04967970621, 0.04695260811, 0.003428849561
3071, 0.04983963333, 0.04694002158, 0.003428849561
3072, 0.05, 0.04693582223, 0.003428849561
3073, 0.05016036667, 0.04694002158, 0.003428849561
3074, 0.05032029379, 0.04695260811, 0.003428849561
3075, 0.05047934301, 0.04697354734, 0.003428849561
3076, 0.05063707838, 0.04700278186, 0.003428849561
3077, 0.05079306757, 0.04704023155, 0.003428849561
3078, 0.05094688301, 0.04708579376, 0.003428849561
3079, 0.05109810311, 0.04713934361, 0.003428849561
3080, 0.05124631338, 0.04720073431, 0.003428849561
3081, 0.0513911076, 0.04726979761, 0.003428849561
3082, 0.05153208889, 0.04734634421, 0.003428849561
3083, 0.05166887083, 0.04743016429, 0.003428849561
3084, 0.05180107851, 0.04752102811, 0.003428849561
3085, 0.05192834955, 0.04761868662, 0.003428849561
3086, 0.05205033513, 0.04772287214, 0.003428849561
3087, 0.05216670088, 0.04783329912, 0.003428849561
3088, 0.05227712786, 0.04794966487, 0.003428849561
3089, 0.05238131338, 0.04807165045, 0.003428849561
3090, 0.05247897189, 0.04819892149, 0.003428849561
3091, 0.05256983571, 0.04833112917, 0.003428849561
3092, 0.05265365579, 0.04846791111, 0.003428849561
3093, 0.05273020239, 0.0486088924, 0.003428849561
3094, 0.05279926569, 0.04875368662, 0.003428849561
3095, 0.05286065639, 0.04890189689, 0.003428849561
3096, 0.05291420624, 0.04905311699, 0.003428849561
3097, 0.05295976845, 0.04920693243, 0.003428849561
3098, 0.05299721814, 0.04936292162, 0.003428849561
3099, 0.05302645266, 0.04952065699, 0.003428849561
3100, 0.05304739189, 0.04967970621, 0.003428849561
3101, 0.05305997842, 0.04983963333, 0.003428849561
3102, 0.05315204301, 0.05, 0.003537354099
3103, 0.05314772325, 0.05016496519, 0.003537354099
3104, 0.05313477579, 0.05032947821, 0.003537354099
3105, 0.05311323613, 0.05049308816, 0.003537354099
3106, 0.05308316331, 0.05065534659, 0.003537354099
3107, 0.05304463975, 0.05081580876, 0.003537354099
3108, 0.05299777105, 0.05097403486, 0.003537354099
3109, 0.05294268566, 0.05112959119, 0.003537354099
3110, 0.05287953458, 0.05128205139, 0.003537354099
3111, 0.05280849089, 0.05143099758, 0.003537354099
3112, 0.05272974932, 0.05157602151, 0.003537354099
3113, 0.05264352571, 0.05171672567, 0.003537354099
3114, 0.05255005637, 0.0518527244, 0.003537354099
3115, 0.0524495975, 0.05198364494, 0.003537354099
3116, 0.05234242446, 0.05210912845, 0.003537354099
3117, 0.05222883099, 0.05222883099, 0.003537354099
3118, 0.05210912845, 0.05234242446, 0.003537354099
3119, 0.05198364494, 0.0524495975, 0.003537354099
3120, 0.0518527244, 0.05255005637, 0.003537354099
3121, 0.05171672567, 0.05264352571, 0.003537354099
3122, 0.05157602151, 0.05272974932, 0.003537354099
3123, 0.05143099758, 0.05280849089, 0.003537354099
3124, 0.05128205139, 0.05287953458, 0.003537354099
3125, 0.05112959119, 0.05294268566, 0.003537354099
3126, 0.05097403486, 0.05299777105, 0.003537354099
3127, 0.05081580876, 0.05304463975, 0.003537354099
3128, 0.05065534659, 0.05308316331, 0.003537354099
3129, 0.05049308816, 0.05311323613, 0.003537354099
3130, 0.05032947821, 0.05313477579, 0.003537354099
3131, 0.05016496519, 0.05314772325, 0.003537354099
3132, 0.05, 0.05315204301, 0.003537354099
3133, 0.04983503481, 0.05314772325, 0.003537354099
3134, 0.04967052179, 0.05313477579, 0.003537354099
3135, 0.04950691184, 0.05311323613, 0.003537354099
3136, 0.04934465341, 0.05308316331, 0.003537354099
3137, 0.04918419124, 0.05304463975, 0.003537354099
3138, 0.04902596514, 0.05299777105, 0.003537354099
3139, 0.04887040881, 0.05294268566, 0.003537354099
3140, 0.04871794861, 0.05287953458, 0.003537354099
3141, 0.04856900242, 0.05280849089, 0.003537354099
3142, 0.04842397849, 0.05272974932, 0.003537354099
3143, 0.04828327433, 0.05264352571, 0.003537354099
3144, 0.0481472756, 0.05255005637, 0.003537354099
3145, 0.04801635506, 0.0524495975, 0.003537354099
3146, 0.04789087155, 0.05234242446, 0.003537354099
3147, 0.04777116901, 0.05222883099, 0.003537354099
3148, 0.04765757554, 0.05210912845, 0.003537354099
3149, 0.0475504025, 0.05198364494, 0.003537354099
3150, 0.04744994363, 0.0518527244, 0.003537354099
3151, 0.04735647429, 0.05171672567, 0.003537354099
3152, 0.04727025068, 0.05157602151, 0.003537354099
3153, 0.04719150911, 0.05143099758, 0.003537354099
3154, 0.04712046542, 0.05128205139, 0.003537354099
3155, 0.04705731434, 0.05112959119, 0.003537354099
3156, 0.04700222895, 0.05097403486, 0.003537354099
3157, 0.04695536025, 0.05081580876, 0.003537354099
3158, 0.04691683669, 0.05065534659, 0.003537354099
3159, 0.04688676387, 0.05049308816, 0.003537354099
3160, 0.04686522421, 0.05032947821, 0.003537354099
3161, 0.04685227675, 0.05016496519, 0.003537354099
3162, 0.04684795699, 0.05, 0.003537354099
3163, 0.04685227675, 0.04983503481, 0.003537354099
3164, 0.04686522421, 0.04967052179, 0.003537354099
3165, 0.04688676387, 0.04950691184, 0.003537354099
3166, 0.04691683669, 0.04934465341, 0.003537354099
3167, 0.04695536025, 0.04918419124, 0.003537354099
3168, 0.04700222895, 0.04902596514, 0.003537354099
3169, 0.04705731434, 0.04887040881, 0.003537354099
3170, 0.04712046542, 0.04871794861, 0.003537354099
3171, 0.04719150911, 0.04856900242, 0.003537354099
3172, 0.04727025068, 0.04842397849, 0.003537354099
3173, 0.04735647429, 0.04828327433, 0.003537354099
3174, 0.04744994363, 0.0481472756, 0.003537354099
3175, 0.0475504025, 0.04801635506, 0.003537354099
3176, 0.04765757554, 0.04789087155, 0.003537354099
3177, 0.04777116901, 0.04777116901, 0.003537354099
3178, 0.04789087155, 0.04765757554, 0.003537354099
3179, 0.04801635506, 0.0475504025, 0.003537354099
3180, 0.0481472756, 0.04744994363, 0.003537354099
3181, 0.04828327433, 0.04735647429, 0.003537354099
3182, 0.04842397849, 0.04727025068, 0.003537354099
3183, 0.04856900242, 0.04719150911, 0.003537354099
3184, 0.04871794861, 0.04712046542, 0.003537354099
3185, 0.04887040881, 0.04705731434, 0.003537354099
3186, 0.04902596514, 0.04700222895, 0.003537354099
3187, 0.04918419124, 0.04695536025, 0.003537354099
3188, 0.04934465341, 0.04691683669, 0.003537354099
3189, 0.04950691184, 0.04688676387, 0.003537354099
3190, 0.04967052179, 0.04686522421, 0.003537354099
3191, 0.04983503481, 0.04685227675, 0.003537354099
3192, 0.05, 0.04684795699, 0.003537354099
3193, 0.05016496519, 0.04685227675, 0.003537354099
3194, 0.05032947821, 0.04686522421, 0.003537354099
3195, 0.05049308816, 0.04688676387, 0.003537354099
3196, 0.05065534659, 0.04691683669, 0.003537354099
3197, 0.05081580876, 0.04695536025, 0.003537354099
3198, 0.05097403486, 0.04700222895, 0.003537354099
3199, 0.05112959119, 0.04705731434, 0.003537354099
3200, 0.05128205139, 0.04712046542, 0.003537354099
3201, 0.05143099758, 0.04719150911, 0.003537354099
3202, 0.05157602151, 0.04727025068, 0.003537354099
3203, 0.05171672567, 0.04735647429, 0.003537354099
3204, 0.0518527244, 0.04744994363, 0.003537354099
3205, 0.05198364494, 0.0475504025, 0.003537354099
3206, 0.05210912845, 0.04765757554, 0.003537354099
3207, 0.05222883099, 0.04777116901, 0.003537354099
3208, 0.05234242446, 0.04789087155, 0.003537354099
3209, 0.0524495975, 0.04801635506, 0.003537354099
3210, 0.05255005637, 0.0481472756, 0.003537354099
3211, 0.05264352571, 0.04828327433, 0.003537354099
3212, 0.05272974932, 0.04842397849, 0.003537354099
3213, 0.05280849089, 0.04856900242, 0.003537354099
3214, 0.05287953458, 0.04871794861, 0.003537354099
3215, 0.05294268566, 0.04887040881, 0.003537354099
3216, 0.05299777105, 0.04902596514, 0.003537354099
3217, 0.05304463975, 0.04918419124, 0.003537354099
3218, 0.05308316331, 0.04934465341, 0.003537354099
3219, 0.05311323613, 0.04950691184, 0.003537354099
3220, 0.05313477579, 0.04967052179, 0.003537354099
3221, 0.05314772325, 0.04983503481, 0.003537354099
3222, 0.05323606798, 0.05, 0.003648858991
3223, 0.05323163306, 0.05016936271, 0.003648858991
3224, 0.05321834046, 0.05033826121, 0.003648858991
3225, 0.05319622661, 0.05050623256, 0.003648858991
3226, 0.05316535213, 0.05067281636, 0.003648858991
3227, 0.05312580164, 0.05083755602, 0.003648858991
3228, 0.05307768354, 0.051, 0.003648858991
3229, 0.05302112972, 0.05115970305, 0.003648858991
3230, 0.0529562952, 0.05131622743, 0.003648858991
3231, 0.05288335768, 0.05146914412, 0.003648858991
3232, 0.05280251708, 0.05161803399, 0.003648858991
3233, 0.05271399497, 0.05176248894, 0.003648858991
3234, 0.05261803399, 0.05190211303, 0.003648858991
3235, 0.05251489716, 0.05203652357, 0.003648858991
3236, 0.05240486717, 0.05216535213, 0.003648858991
3237, 0.05228824561, 0.05228824561, 0.003648858991
3238, 0.05216535213, 0.05240486717, 0.003648858991
3239, 0.05203652357, 0.05251489716, 0.003648858991
3240, 0.05190211303, 0.05261803399, 0.003648858991
3241, 0.05176248894, 0.05271399497, 0.003648858991
3242, 0.05161803399, 0.05280251708, 0.003648858991
3243, 0.05146914412, 0.05288335768, 0.003648858991
3244, 0.05131622743, 0.0529562952, 0.003648858991
3245, 0.05115970305, 0.05302112972, 0.003648858991
3246, 0.051, 0.05307768354, 0.003648858991
3247, 0.05083755602, 0.05312580164, 0.003648858991
3248, 0.05067281636, 0.05316535213, 0.003648858991
3249, 0.05050623256, 0.05319622661, 0.003648858991
3250, 0.05033826121, 0.05321834046, 0.003648858991
3251, 0.05016936271, 0.05323163306, 0.003648858991
3252, 0.05, 0.05323606798, 0.003648858991
3253, 0.04983063729, 0.05323163306, 0.003648858991
3254, 0.04966173879, 0.05321834046, 0.003648858991
3255, 0.04949376744, 0.05319622661, 0.003648858991
3256, 0.04932718364, 0.05316535213, 0.003648858991
3257, 0.04916244398, 0.05312580164, 0.003648858991
3258, 0.049, 0.05307768354, 0.003648858991
3259, 0.04884029695, 0.05302112972, 0.003648858991
3260, 0.04868377257, 0.0529562952, 0.003648858991
3261, 0.04853085588, 0.05288335768, 0.003648858991
3262, 0.04838196601, 0.05280251708, 0.003648858991
3263, 0.04823751106, 0.05271399497, 0.003648858991
3264, 0.04809788697, 0.05261803399, 0.003648858991
3265, 0.04796347643, 0.05251489716, 0.003648858991
3266, 0.04783464787, 0.05240486717, 0.003648858991
3267, 0.04771175439, 0.05228824561, 0.003648858991
3268, 0.04759513283, 0.05216535213, 0.003648858991
3269, 0.04748510284, 0.05203652357, 0.003648858991
3270, 0.04738196601, 0.05190211303, 0.003648858991
3271, 0.04728600503, 0.05176248894, 0.003648858991
3272, 0.04719748292, 0.05161803399, 0.003648858991
3273, 0.04711664232, 0.05146914412, 0.003648858991
3274, 0.0470437048, 0.05131622743, 0.003648858991
3275, 0.04697887028, 0.05115970305, 0.003648858991
3276, 0.04692231646, 0.051, 0.003648858991
3277, 0.04687419836, 0.05083755602, 0.003648858991
3278, 0.04683464787, 0.05067281636, 0.003648858991
3279, 0.04680377339, 0.05050623256, 0.003648858991
3280, 0.04678165954, 0.05033826121, 0.003648858991
3281, 0.04676836694, 0.05016936271, 0.003648858991
3282, 0.04676393202, 0.05, 0.003648858991
3283, 0.04676836694, 0.04983063729, 0.003648858991
3284, 0.04678165954, 0.04966173879, 0.003648858991
3285, 0.04680377339, 0.04949376744, 0.003648858991
3286, 0.04683464787, 0.04932718364, 0.003648858991
3287, 0.04687419836, 0.04916244398, 0.003648858991
3288, 0.04692231646, 0.049, 0.003648858991
3289, 0.04697887028, 0.04884029695, 0.003648858991
3290, 0.0470437048, 0.04868377257, 0.003648858991
3291, 0.04711664232, 0.04853085588, 0.003648858991
3292, 0.04719748292, 0.04838196601, 0.003648858991
3293, 0.04728600503, 0.04823751106, 0.003648858991
3294, 0.04738196601, 0.04809788697, 0.003648858991
3295, 0.04748510284, 0.04796347643, 0.003648858991
3296, 0.04759513283, 0.04783464787, 0.003648858991
3297, 0.04771175439, 0.04771175439, 0.003648858991
3298, 0.04783464787, 0.04759513283, 0.003648858991
3299, 0.04796347643, 0.04748510284, 0.003648858991
3300, 0.04809788697, 0.04738196601, 0.003648858991
3301, 0.04823751106, 0.04728600503, 0.003648858991
3302, 0.04838196601, 0.04719748292, 0.003648858991
3303, 0.04853085588, 0.04711664232, 0.003648858991
3304, 0.04868377257, 0.0470437048, 0.003648858991
3305, 0.04884029695, 0.04697887028, 0.003648858991
3306, 0.049, 0.04692231646, 0.003648858991
3307, 0.04916244398, 0.04687419836, 0.003648858991
3308, 0.04932718364, 0.04683464787, 0.003648858991
3309, 0.04949376744, 0.04680377339, 0.003648858991
3310, 0.04966173879, 0.04678165954, 0.003648858991
3311, 0.04983063729, 0.04676836694, 0.003648858991
3312, 0.05, 0.04676393202, 0.003648858991
3313, 0.05016936271, 0.04676836694, 0.003648858991
3314, 0.05033826121, 0.04678165954, 0.003648858991
3315, 0.05050623256, 0.04680377339, 0.003648858991
3316, 0.05067281636, 0.04683464787, 0.003648858991
3317, 0.05083755602, 0.04687419836, 0.003648858991
3318, 0.051, 0.04692231646, 0.003648858991
3319, 0.05115970305, 0.04697887028, 0.003648858991
3320, 0.05131622743, 0.0470437048, 0.003648858991
3321, 0.05146914412, 0.04711664232, 0.003648858991
3322, 0.05161803399, 0.04719748292, 0.003648858991
3323, 0.05176248894, 0.04728600503, 0.003648858991
3324, 0.05190211303, 0.04738196601, 0.003648858991
3325, 0.05203652357, 0.04748510284, 0.003648858991
3326, 0.05216535213, 0.04759513283, 0.003648858991
3327, 0.05228824561, 0.04771175439, 0.003648858991
3328, 0.05240486717, 0.04783464787, 0.003648858991
3329, 0.05251489716, 0.04796347643, 0.003648858991
3330, 0.05261803399, 0.04809788697, 0.003648858991
3331, 0.05271399497, 0.04823751106, 0.003648858991
3332, 0.05280251708, 0.04838196601, 0.003648858991
3333, 0.05288335768, 0.04853085588, 0.003648858991
3334, 0.0529562952, 0.04868377257, 0.003648858991
3335, 0.05302112972, 0.04884029695, 0.003648858991
3336, 0.05307768354, 0.049, 0.003648858991
3337, 0.05312580164, 0.04916244398, 0.003648858991
3338, 0.05316535213, 0.04932718364, 0.003648858991
3339, 0.05319622661, 0.04949376744, 0.003648858991
3340, 0.05321834046, 0.04966173879, 0.003648858991
3341, 0.05323163306, 0.04983063729, 0.003648858991
3342, 0.05331615029, 0.05, 0.003763228386
3343, 0.05331160562, 0.0501735539, 0.003763228386
3344, 0.05329798407, 0.05034663209, 0.003763228386
3345, 0.05327532298, 0.0505187602, 0.003763228386
3346, 0.05324368445, 0.05068946641, 0.003763228386
3347, 0.05320315521, 0.05085828285, 0.003763228386
3348, 0.05315384634, 0.0510247468, 0.003763228386
3349, 0.053095893, 0.05118840198, 0.003763228386
3350, 0.05302945403, 0.05134879984, 0.003763228386
3351, 0.05295471154, 0.05150550073, 0.003763228386
3352, 0.05287187039, 0.05165807515, 0.003763228386
3353, 0.05278115765, 0.05180610489, 0.003763228386
3354, 0.05268282194, 0.05194918423, 0.003763228386
3355, 0.05257713281, 0.052086921, 0.003763228386
3356, 0.05246437993, 0.05221893765, 0.003763228386
3357, 0.05234487236, 0.05234487236, 0.003763228386
3358, 0.05221893765, 0.05246437993, 0.003763228386
3359, 0.052086921, 0.05257713281, 0.003763228386
3360, 0.05194918423, 0.05268282194, 0.003763228386
3361, 0.05180610489, 0.05278115765, 0.003763228386
3362, 0.05165807515, 0.05287187039, 0.003763228386
3363, 0.05150550073, 0.05295471154, 0.003763228386
3364, 0.05134879984, 0.05302945403, 0.003763228386
3365, 0.05118840198, 0.053095893, 0.003763228386
3366, 0.0510247468, 0.05315384634, 0.003763228386
3367, 0.05085828285, 0.05320315521, 0.003763228386
3368, 0.05068946641, 0.05324368445, 0.003763228386
3369, 0.0505187602, 0.05327532298, 0.003763228386
3370, 0.05034663209, 0.05329798407, 0.003763228386
3371, 0.0501735539, 0.05331160562, 0.003763228386
3372, 0.05, 0.05331615029, 0.003763228386
3373, 0.0498264461, 0.05331160562, 0.003763228386
3374, 0.04965336791, 0.05329798407, 0.003763228386
3375, 0.0494812398, 0.05327532298, 0.003763228386
3376, 0.04931053359, 0.05324368445, 0.003763228386
3377, 0.04914171715, 0.05320315521, 0.003763228386
3378, 0.0489752532, 0.05315384634, 0.003763228386
3379, 0.04881159802, 0.053095893, 0.003763228386
3380, 0.04865120016, 0.05302945403, 0.003763228386
3381, 0.04849449927, 0.05295471154, 0.003763228386
3382, 0.04834192485, 0.05287187039, 0.003763228386
3383, 0.04819389511, 0.05278115765, 0.003763228386
3384, 0.04805081577, 0.05268282194, 0.003763228386
3385, 0.047913079, 0.05257713281, 0.003763228386
3386, 0.04778106235, 0.05246437993, 0.003763228386
3387, 0.04765512764, 0.05234487236, 0.003763228386
3388, 0.04753562007, 0.05221893765, 0.003763228386
3389, 0.04742286719, 0.052086921, 0.003763228386
3390, 0.04731717806, 0.05194918423, 0.003763228386
3391, 0.04721884235, 0.05180610489, 0.003763228386
3392, 0.04712812961, 0.05165807515, 0.003763228386
3393, 0.04704528846, 0.05150550073, 0.003763228386
3394, 0.04697054597, 0.05134879984, 0.003763228386
3395, 0.046904107, 0.05118840198, 0.003763228386
3396, 0.04684615366, 0.0510247468, 0.003763228386
3397, 0.04679684479, 0.05085828285, 0.003763228386
3398, 0.04675631555, 0.05068946641, 0.003763228386
3399, 0.04672467702, 0.0505187602, 0.003763228386
3400, 0.04670201593, 0.05034663209, 0.003763228386
3401, 0.04668839438, 0.0501735539, 0.003763228386
3402, 0.04668384971, 0.05, 0.003763228386
3403, 0.04668839438, 0.0498264461, 0.003763228386
3404, 0.04670201593, 0.04965336791, 0.003763228386
3405, 0.04672467702, 0.0494812398, 0.003763228386
3406, 0.04675631555, 0.04931053359, 0.003763228386
3407, 0.04679684479, 0.04914171715, 0.003763228386
3408, 0.04684615366, 0.0489752532, 0.003763228386
3409, 0.046904107, 0.04881159802, 0.003763228386
3410, 0.04697054597, 0.04865120016, 0.003763228386
3411, 0.04704528846, 0.04849449927, 0.003763228386
3412, 0.04712812961, 0.04834192485, 0.003763228386
3413, 0.04721884235, 0.04819389511, 0.003763228386
3414, 0.04731717806, 0.04805081577, 0.003763228386
3415, 0.04742286719, 0.047913079, 0.003763228386
3416, 0.04753562007, 0.04778106235, 0.003763228386
3417, 0.04765512764, 0.04765512764, 0.003763228386
3418, 0.04778106235, 0.04753562007, 0.003763228386
3419, 0.047913079, 0.04742286719, 0.003763228386
3420, 0.04805081577, 0.04731717806, 0.003763228386
3421, 0.04819389511, 0.04721884235, 0.003763228386
3422, 0.04834192485, 0.04712812961, 0.003763228386
3423, 0.04849449927, 0.04704528846, 0.003763228386
3424, 0.04865120016, 0.04697054597, 0.003763228386
3425, 0.04881159802, 0.046904107, 0.003763228386
3426, 0.0489752532, 0.04684615366, 0.003763228386
3427, 0.04914171715, 0.04679684479, 0.003763228386
3428, 0.04931053359, 0.04675631555, 0.003763228386
3429, 0.0494812398, 0.04672467702, 0.003763228386
3430, 0.04965336791, 0.04670201593, 0.003763228386
3431, 0.0498264461, 0.04668839438, 0.003763228386
3432, 0.05, 0.04668384971, 0.003763228386
3433, 0.0501735539, 0.04668839438, 0.003763228386
3434, 0.05034663209, 0.04670201593, 0.003763228386
3435, 0.0505187602, 0.04672467702, 0.003763228386
3436, 0.05068946641, 0.04675631555, 0.003763228386
3437, 0.05085828285, 0.04679684479, 0.003763228386
3438, 0.0510247468, 0.04684615366, 0.003763228386
3439, 0.05118840198, 0.046904107, 0.003763228386
3440, 0.05134879984, 0.04697054597, 0.003763228386
3441, 0.05150550073, 0.04704528846, 0.003763228386
3442, 0.05165807515, 0.04712812961, 0.003763228386
3443, 0.05180610489, 0.04721884235, 0.003763228386
3444, 0.05194918423, 0.04731717806, 0.003763228386
3445, 0.052086921, 0.04742286719, 0.003763228386
3446, 0.05221893765, 0.04753562007, 0.003763228386
3447, 0.05234487236, 0.04765512764, 0.003763228386
3448, 0.05246437993, 0.04778106235, 0.003763228386
3449, 0.05257713281, 0.047913079, 0.003763228386
3450, 0.05268282194, 0.04805081577, 0.003763228386
3451, 0.05278115765, 0.04819389511, 0.003763228386
3452, 0.05287187039, 0.04834192485, 0.003763228386
3453, 0.05295471154, 0.04849449927, 0.003763228386
3454, 0.05302945403, 0.04865120016, 0.003763228386
3455, 0.053095893, 0.04881159802, 0.003763228386
3456, 0.05315384634, 0.0489752532, 0.003763228386
3457, 0.05320315521, 0.04914171715, 0.003763228386
3458, 0.05324368445, 0.04931053359, 0.003763228386
3459, 0.05327532298, 0.0494812398, 0.003763228386
3460, 0.05329798407, 0.04965336791, 0.003763228386
3461, 0.05331160562, 0.0498264461, 0.003763228386
3462, 0.05339219238, 0.05, 0.003880322943
3463, 0.0533875435, 0.05017753363, 0.003880322943
3464, 0.0533736096, 0.05035458066, 0.003880322943
3465, 0.05335042887, 0.0505306558, 0.003880322943
3466, 0.05331806484, 0.05070527645, 0.003880322943
3467, 0.05327660623, 0.05087796399, 0.003880322943
3468, 0.05322616667, 0.0510482451, 0.003880322943
3469, 0.05316688441, 0.05121565303, 0.003880322943
3470, 0.05309892194, 0.05137972894, 0.003880322943
3471, 0.05302246555, 0.05154002312, 0.003880322943
3472, 0.05293772478, 0.05169609619, 0.003880322943
3473, 0.05284493191, 0.05184752039, 0.003880322943
3474, 0.05274434129, 0.05199388066, 0.003880322943
3475, 0.05263622861, 0.05213477584, 0.003880322943
3476, 0.05252089022, 0.05226981975, 0.003880322943
3477, 0.05239864224, 0.05239864224, 0.003880322943
3478, 0.05226981975, 0.05252089022, 0.003880322943
3479, 0.05213477584, 0.05263622861, 0.003880322943
3480, 0.05199388066, 0.05274434129, 0.003880322943
3481, 0.05184752039, 0.05284493191, 0.003880322943
3482, 0.05169609619, 0.05293772478, 0.003880322943
3483, 0.05154002312, 0.05302246555, 0.003880322943
3484, 0.05137972894, 0.05309892194, 0.003880322943
3485, 0.05121565303, 0.05316688441, 0.003880322943
3486, 0.0510482451, 0.05322616667, 0.003880322943
3487, 0.05087796399, 0.05327660623, 0.003880322943
3488, 0.05070527645, 0.05331806484, 0.003880322943
3489, 0.0505306558, 0.05335042887, 0.003880322943
3490, 0.05035458066, 0.0533736096, 0.003880322943
3491, 0.05017753363, 0.0533875435, 0.003880322943
3492, 0.05, 0.05339219238, 0.003880322943
3493, 0.04982246637, 0.0533875435, 0.003880322943
3494, 0.04964541934, 0.0533736096, 0.003880322943
3495, 0.0494693442, 0.05335042887, 0.003880322943
3496, 0.04929472355, 0.05331806484, 0.003880322943
3497, 0.04912203601, 0.05327660623, 0.003880322943
3498, 0.0489517549, 0.05322616667, 0.003880322943
3499, 0.04878434697, 0.05316688441, 0.003880322943
3500, 0.04862027106, 0.05309892194, 0.003880322943
3501, 0.04845997688, 0.05302246555, 0.003880322943
3502, 0.04830390381, 0.05293772478, 0.003880322943
3503, 0.04815247961, 0.05284493191, 0.003880322943
3504, 0.04800611934, 0.05274434129, 0.003880322943
3505, 0.04786522416, 0.05263622861, 0.003880322943
3506, 0.04773018025, 0.05252089022, 0.003880322943
3507, 0.04760135776, 0.05239864224, 0.003880322943
3508, 0.04747910978, 0.05226981975, 0.003880322943
3509, 0.04736377139, 0.05213477584, 0.003880322943
3510, 0.04725565871, 0.05199388066, 0.003880322943
3511, 0.04715506809, 0.05184752039, 0.003880322943
3512, 0.04706227522, 0.05169609619, 0.003880322943
3513, 0.04697753445, 0.05154002312, 0.003880322943
3514, 0.04690107806, 0.05137972894, 0.003880322943
3515, 0.04683311559, 0.05121565303, 0.003880322943
3516, 0.04677383333, 0.0510482451, 0.003880322943
3517, 0.04672339377, 0.05087796399, 0.003880322943
3518, 0.04668193516, 0.05070527645, 0.003880322943
3519, 0.04664957113, 0.0505306558, 0.003880322943
3520, 0.0466263904, 0.05035458066, 0.003880322943
3521, 0.0466124565, 0.05017753363, 0.003880322943
3522, 0.04660780762, 0.05, 0.003880322943
3523, 0.0466124565, 0.04982246637, 0.003880322943
3524, 0.0466263904, 0.04964541934, 0.003880322943
3525, 0.04664957113, 0.0494693442, 0.003880322943
3526, 0.04668193516, 0.04929472355, 0.003880322943
3527, 0.04672339377, 0.04912203601, 0.003880322943
3528, 0.04677383333, 0.0489517549, 0.003880322943
3529, 0.04683311559, 0.04878434697, 0.003880322943
3530, 0.04690107806, 0.04862027106, 0.003880322943
3531, 0.04697753445, 0.04845997688, 0.003880322943
3532, 0.04706227522, 0.04830390381, 0.003880322943
3533, 0.04715506809, 0.04815247961, 0.003880322943
3534, 0.04725565871, 0.04800611934, 0.003880322943
3535, 0.04736377139, 0.04786522416, 0.003880322943
3536, 0.04747910978, 0.04773018025, 0.003880322943
3537, 0.04760135776, 0.04760135776, 0.003880322943
3538, 0.04773018025, 0.04747910978, 0.003880322943
3539, 0.04786522416, 0.04736377139, 0.003880322943
3540, 0.04800611934, 0.04725565871, 0.003880322943
3541, 0.04815247961, 0.04715506809, 0.003880322943
3542, 0.04830390381, 0.04706227522, 0.003880322943
3543, 0.04845997688, 0.04697753445, 0.003880322943
3544, 0.04862027106, 0.04690107806, 0.003880322943
3545, 0.04878434697, 0.04683311559, 0.003880322943
3546, 0.0489517549, 0.04677383333, 0.003880322943
3547, 0.04912203601, 0.04672339377, 0.003880322943
3548, 0.04929472355, 0.04668193516, 0.003880322943
3549, 0.0494693442, 0.04664957113, 0.003880322943
3550, 0.04964541934, 0.0466263904, 0.003880322943
3551, 0.04982246637, 0.0466124565, 0.003880322943
3552, 0.05, 0.04660780762, 0.003880322943
3553, 0.05017753363, 0.0466124565, 0.003880322943
3554, 0.05035458066, 0.0466263904, 0.003880322943
3555, 0.0505306558, 0.04664957113, 0.003880322943
3556, 0.05070527645, 0.04668193516, 0.003880322943
3557, 0.05087796399, 0.04672339377, 0.003880322943
3558, 0.0510482451, 0.04677383333, 0.003880322943
3559, 0.05121565303, 0.04683311559, 0.003880322943
3560, 0.05137972894, 0.04690107806, 0.003880322943
3561, 0.05154002312, 0.04697753445, 0.003880322943
3562, 0.05169609619, 0.04706227522, 0.003880322943
3563, 0.05184752039, 0.04715506809, 0.003880322943
3564, 0.05199388066, 0.04725565871, 0.003880322943
3565, 0.05213477584, 0.04736377139, 0.003880322943
3566, 0.05226981975, 0.04747910978, 0.003880322943
3567, 0.05239864224, 0.04760135776, 0.003880322943
3568, 0.05252089022, 0.04773018025, 0.003880322943
3569, 0.05263622861, 0.04786522416, 0.003880322943
3570, 0.05274434129, 0.04800611934, 0.003880322943
3571, 0.05284493191, 0.04815247961, 0.003880322943
3572, 0.05293772478, 0.04830390381, 0.003880322943
3573, 0.05302246555, 0.04845997688, 0.003880322943
3574, 0.05309892194, 0.04862027106, 0.003880322943
3575, 0.05316688441, 0.04878434697, 0.003880322943
3576, 0.05322616667, 0.0489517549, 0.003880322943
3577, 0.05327660623, 0.04912203601, 0.003880322943
3578, 0.05331806484, 0.04929472355, 0.003880322943
3579, 0.05335042887, 0.0494693442, 0.003880322943
3580, 0.0533736096, 0.04964541934, 0.003880322943
3581, 0.0533875435, 0.04982246637, 0.003880322943
3582, 0.05346410162, 0.05, 0.004
3583, 0.05345935418, 0.05018129707, 0.004
3584, 0.0534451249, 0.05036209722, 0.004
3585, 0.05342145278, 0.05054190488, 0.004
3586, 0.05338840268, 0.05072022722, 0.004
3587, 0.05334606521, 0.05089657547, 0.004
3588, 0.05329455641, 0.05107046627, 0.004
3589, 0.05323401746, 0.05124142299, 0.004
3590, 0.0531646143, 0.05140897706, 0.004
3591, 0.05308653714, 0.05157266922, 0.004
3592, 0.053, 0.05173205081, 0.004
3593, 0.05290524007, 0.05188668496, 0.004
3594, 0.05280251708, 0.05203614784, 0.004
3595, 0.05269211258, 0.05218002978, 0.004
3596, 0.05257432919, 0.05231793641, 0.004
3597, 0.05244948974, 0.05244948974, 0.004
3598, 0.05231793641, 0.05257432919, 0.004
3599, 0.05218002978, 0.05269211258, 0.004
3600, 0.05203614784, 0.05280251708, 0.004
3601, 0.05188668496, 0.05290524007, 0.004
3602, 0.05173205081, 0.053, 0.004
3603, 0.05157266922, 0.05308653714, 0.004
3604, 0.05140897706, 0.0531646143, 0.004
3605, 0.05124142299, 0.05323401746, 0.004
3606, 0.05107046627, 0.05329455641, 0.004
3607, 0.05089657547, 0.05334606521, 0.004
3608, 0.05072022722, 0.05338840268, 0.004
3609, 0.05054190488, 0.05342145278, 0.004
3610, 0.05036209722, 0.0534451249, 0.004
3611, 0.05018129707, 0.05345935418, 0.004
3612, 0.05, 0.05346410162, 0.004
3613, 0.04981870293, 0.05345935418, 0.004
3614, 0.04963790278, 0.0534451249, 0.004
3615, 0.04945809512, 0.05342145278, 0.004
3616, 0.04927977278, 0.05338840268, 0.004
3617, 0.04910342453, 0.05334606521, 0.004
3618, 0.04892953373, 0.05329455641, 0.004
3619, 0.04875857701, 0.05323401746, 0.004
3620, 0.04859102294, 0.0531646143, 0.004
3621, 0.04842733078, 0.05308653714, 0.004
3622, 0.04826794919, 0.053, 0.004
3623, 0.04811331504, 0.05290524007, 0.004
3624, 0.04796385216, 0.05280251708, 0.004
3625, 0.04781997022, 0.05269211258, 0.004
3626, 0.04768206359, 0.05257432919, 0.004
3627, 0.04755051026, 0.05244948974, 0.004
3628, 0.04742567081, 0.05231793641, 0.004
3629, 0.04730788742, 0.05218002978, 0.004
3630, 0.04719748292, 0.05203614784, 0.004
3631, 0.04709475993, 0.05188668496, 0.004
3632, 0.047, 0.05173205081, 0.004
3633, 0.04691346286, 0.05157266922, 0.004
3634, 0.0468353857, 0.05140897706, 0.004
3635, 0.04676598254, 0.05124142299, 0.004
3636, 0.04670544359, 0.05107046627, 0.004
3637, 0.04665393479, 0.05089657547, 0.004
3638, 0.04661159732, 0.05072022722, 0.004
3639, 0.04657854722, 0.05054190488, 0.004
3640, 0.0465548751, 0.05036209722, 0.004
3641, 0.04654064582, 0.05018129707, 0.004
3642, 0.04653589838, 0.05, 0.004
3643, 0.04654064582, 0.04981870293, 0.004
3644, 0.0465548751, 0.04963790278, 0.004
3645, 0.04657854722, 0.04945809512, 0.004
3646, 0.04661159732, 0.04927977278, 0.004
3647, 0.04665393479, 0.04910342453, 0.004
3648, 0.04670544359, 0.04892953373, 0.004
3649, 0.04676598254, 0.04875857701, 0.004
3650, 0.0468353857, 0.04859102294, 0.004
3651, 0.04691346286, 0.04842733078, 0.004
3652, 0.047, 0.04826794919, 0.004
3653, 0.04709475993, 0.04811331504, 0.004
3654, 0.04719748292, 0.04796385216, 0.004
3655, 0.04730788742, 0.04781997022, 0.004
3656, 0.04742567081, 0.04768206359, 0.004
3657, 0.04755051026, 0.04755051026, 0.004
3658, 0.04768206359, 0.04742567081, 0.004
3659, 0.04781997022, 0.04730788742, 0.004
3660, 0.04796385216, 0.04719748292, 0.004
3661, 0.04811331504, 0.04709475993, 0.004
3662, 0.04826794919, 0.047, 0.004
3663, 0.04842733078, 0.04691346286, 0.004
3664, 0.04859102294, 0.0468353857, 0.004
3665, 0.04875857701, 0.04676598254, 0.004
3666, 0.04892953373, 0.04670544359, 0.004
3667, 0.04910342453, 0.04665393479, 0.004
3668, 0.04927977278, 0.04661159732, 0.004
3669, 0.04945809512, 0.04657854722, 0.004
3670, 0.04963790278, 0.0465548751, 0.004
3671, 0.04981870293, 0.04654064582, 0.004
3672, 0.05, 0.04653589838, 0.004
3673, 0.05018129707, 0.04654064582, 0.004
3674, 0.05036209722, 0.0465548751, 0.004
3675, 0.05054190488, 0.04657854722, 0.004
3676, 0.05072022722, 0.04661159732, 0.004
3677, 0.05089657547, 0.04665393479, 0.004
3678, 0.05107046627, 0.04670544359, 0.004
3679, 0.05124142299, 0.04676598254, 0.004
3680, 0.05140897706, 0.0468353857, 0.004
3681, 0.05157266922, 0.04691346286, 0.004
3682, 0.05173205081, 0.047, 0.004
3683, 0.05188668496, 0.04709475993, 0.004
3684, 0.05203614784, 0.04719748292, 0.004
3685, 0.05218002978, 0.04730788742, 0.004
3686, 0.05231793641, 0.04742567081, 0.004
3687, 0.05244948974, 0.04755051026, 0.004
3688, 0.05257432919, 0.04768206359, 0.004
3689, 0.05269211258, 0.04781997022, 0.004
3690, 0.05280251708, 0.04796385216, 0.004
3691, 0.05290524007, 0.04811331504, 0.004
3692, 0.053, 0.04826794919, 0.004
3693, 0.05308653714, 0.04842733078, 0.004
3694, 0.0531646143, 0.04859102294, 0.004
3695, 0.05323401746, 0.04875857701, 0.004
3696, 0.05329455641, 0.04892953373, 0.004
3697, 0.05334606521, 0.04910342453, 0.004
3698, 0.05338840268, 0.04927977278, 0.004
3699, 0.05342145278, 0.04945809512, 0.004
3700, 0.0534451249, 0.04963790278, 0.004
3701, 0.05345935418, 0.04981870293, 0.004
3702, 0.05353179037, 0.05, 0.004122113749
3703, 0.05352695018, 0.05018483963, 0.004122113749
3704, 0.05351244285, 0.05036917262, 0.004122113749
3705, 0.05348830817, 0.05055249374, 0.004122113749
3706, 0.05345461228, 0.05073430051, 0.004122113749
3707, 0.05341144753, 0.05091409461, 0.004122113749
3708, 0.05335893225, 0.05109138325, 0.004122113749
3709, 0.05329721036, 0.05126568047, 0.004122113749
3710, 0.05322645105, 0.05143650856, 0.004122113749
3711, 0.05314684826, 0.05160339928, 0.004122113749
3712, 0.05305862018, 0.05176589519, 0.004122113749
3713, 0.05296200864, 0.0519235509, 0.004122113749
3714, 0.05285727843, 0.05207593429, 0.004122113749
3715, 0.05274471662, 0.0522226277, 0.004122113749
3716, 0.05262463174, 0.05236322903, 0.004122113749
3717, 0.05249735292, 0.05249735292, 0.004122113749
3718, 0.05236322903, 0.05262463174, 0.004122113749
3719, 0.0522226277, 0.05274471662, 0.004122113749
3720, 0.05207593429, 0.05285727843, 0.004122113749
3721, 0.0519235509, 0.05296200864, 0.004122113749
3722, 0.05176589519, 0.05305862018, 0.004122113749
3723, 0.05160339928, 0.05314684826, 0.004122113749
3724, 0.05143650856, 0.05322645105, 0.004122113749
3725, 0.05126568047, 0.05329721036, 0.004122113749
3726, 0.05109138325, 0.05335893225, 0.004122113749
3727, 0.05091409461, 0.05341144753, 0.004122113749
3728, 0.05073430051, 0.05345461228, 0.004122113749
3729, 0.05055249374, 0.05348830817, 0.004122113749
3730, 0.05036917262, 0.05351244285, 0.004122113749
3731, 0.05018483963, 0.05352695018, 0.004122113749
3732, 0.05, 0.05353179037, 0.004122113749
3733, 0.04981516037, 0.05352695018, 0.004122113749
3734, 0.04963082738, 0.05351244285, 0.004122113749
3735, 0.04944750626, 0.05348830817, 0.004122113749
3736, 0.04926569949, 0.05345461228, 0.004122113749
3737, 0.04908590539, 0.05341144753, 0.004122113749
3738, 0.04890861675, 0.05335893225, 0.004122113749
3739, 0.04873431953, 0.05329721036, 0.004122113749
3740, 0.04856349144, 0.05322645105, 0.004122113749
3741, 0.04839660072, 0.05314684826, 0.004122113749
3742, 0.04823410481, 0.05305862018, 0.004122113749
3743, 0.0480764491, 0.05296200864, 0.004122113749
3744, 0.04792406571, 0.05285727843, 0.004122113749
3745, 0.0477773723, 0.05274471662, 0.004122113749
3746, 0.04763677097, 0.05262463174, 0.004122113749
3747, 0.04750264708, 0.05249735292, 0.004122113749
3748, 0.04737536826, 0.05236322903, 0.004122113749
3749, 0.04725528338, 0.0522226277, 0.004122113749
3750, 0.04714272157, 0.05207593429, 0.004122113749
3751, 0.04703799136, 0.0519235509, 0.004122113749
3752, 0.04694137982, 0.05176589519, 0.004122113749
3753, 0.04685315174, 0.05160339928, 0.004122113749
3754, 0.04677354895, 0.05143650856, 0.004122113749
3755, 0.04670278964, 0.05126568047, 0.004122113749
3756, 0.04664106775, 0.05109138325, 0.004122113749
3757, 0.04658855247, 0.05091409461, 0.004122113749
3758, 0.04654538772, 0.05073430051, 0.004122113749
3759, 0.04651169183, 0.05055249374, 0.004122113749
3760, 0.04648755715, 0.05036917262, 0.004122113749
3761, 0.04647304982, 0.05018483963, 0.004122113749
3762, 0.04646820963, 0.05, 0.004122113749
3763, 0.04647304982, 0.04981516037, 0.004122113749
3764, 0.04648755715, 0.04963082738, 0.004122113749
3765, 0.04651169183, 0.04944750626, 0.004122113749
3766, 0.04654538772, 0.04926569949, 0.004122113749
3767, 0.04658855247, 0.04908590539, 0.004122113749
3768, 0.04664106775, 0.04890861675, 0.004122113749
3769, 0.04670278964, 0.04873431953, 0.004122113749
3770, 0.04677354895, 0.04856349144, 0.004122113749
3771, 0.04685315174, 0.04839660072, 0.004122113749
3772, 0.04694137982, 0.04823410481, 0.004122113749
3773, 0.04703799136, 0.0480764491, 0.004122113749
3774, 0.04714272157, 0.04792406571, 0.004122113749
3775, 0.04725528338, 0.0477773723, 0.004122113749
3776, 0.04737536826, 0.04763677097, 0.004122113749
3777, 0.04750264708, 0.04750264708, 0.004122113749
3778, 0.04763677097, 0.04737536826, 0.004122113749
3779, 0.0477773723, 0.04725528338, 0.004122113749
3780, 0.04792406571, 0.04714272157, 0.004122113749
3781, 0.0480764491, 0.04703799136, 0.004122113749
3782, 0.04823410481, 0.04694137982, 0.004122113749
3783, 0.04839660072, 0.04685315174, 0.004122113749
3784, 0.04856349144, 0.04677354895, 0.004122113749
3785, 0.04873431953, 0.04670278964, 0.004122113749
3786, 0.04890861675, 0.04664106775, 0.004122113749
3787, 0.04908590539, 0.04658855247, 0.004122113749
3788, 0.04926569949, 0.04654538772, 0.004122113749
3789, 0.04944750626, 0.04651169183, 0.004122113749
3790, 0.04963082738, 0.04648755715, 0.004122113749
3791, 0.04981516037, 0.04647304982, 0.004122113749
3792, 0.05, 0.04646820963, 0.004122113749
3793, 0.05018483963, 0.04647304982, 0.004122113749
3794, 0.05036917262, 0.04648755715, 0.004122113749
3795, 0.05055249374, 0.04651169183, 0.004122113749
3796, 0.05073430051, 0.04654538772, 0.004122113749
3797, 0.05091409461, 0.04658855247, 0.004122113749
3798, 0.05109138325, 0.04664106775, 0.004122113749
3799, 0.05126568047, 0.04670278964, 0.004122113749
3800, 0.05143650856, 0.04677354895, 0.004122113749
3801, 0.05160339928, 0.04685315174, 0.004122113749
3802, 0.05176589519, 0.04694137982, 0.004122113749
3803, 0.0519235509, 0.04703799136, 0.004122113749
3804, 0.05207593429, 0.04714272157, 0.004122113749
3805, 0.0522226277, 0.04725528338, 0.004122113749
3806, 0.05236322903, 0.04737536826, 0.004122113749
3807, 0.05249735292, 0.04750264708, 0.004122113749
3808, 0.05262463174, 0.04763677097, 0.004122113749
3809, 0.05274471662, 0.0477773723, 0.004122113749
3810, 0.05285727843, 0.04792406571, 0.004122113749
3811, 0.05296200864, 0.0480764491, 0.004122113749
3812, 0.05305862018, 0.04823410481, 0.004122113749
3813, 0.05314684826, 0.04839660072, 0.004122113749
3814, 0.05322645105, 0.04856349144, 0.004122113749
3815, 0.05329721036, 0.04873431953, 0.004122113749
3816, 0.05335893225, 0.04890861675, 0.004122113749
3817, 0.05341144753, 0.04908590539, 0.004122113749
3818, 0.05345461228, 0.04926569949, 0.004122113749
3819, 0.05348830817, 0.04944750626, 0.004122113749
3820, 0.05351244285, 0.04963082738, 0.004122113749
3821, 0.05352695018, 0.04981516037, 0.004122113749
3822, 0.05359517619, 0.05, 0.004246515413
3823, 0.05359024912, 0.05018815698, 0.004246515413
3824, 0.05357548143, 0.05037579824, 0.004246515413
3825, 0.0535509136, 0.05056240946, 0.004246515413
3826, 0.05351661296, 0.05074747916, 0.004246515413
3827, 0.05347267353, 0.05093050007, 0.004246515413
3828, 0.05341921574, 0.05111097054, 0.004246515413
3829, 0.05335638612, 0.05128839592, 0.004246515413
3830, 0.05328435687, 0.05146228989, 0.004246515413
3831, 0.05320332544, 0.05163217583, 0.004246515413
3832, 0.05311351391, 0.05179758809, 0.004246515413
3833, 0.05301516845, 0.05195807329, 0.004246515413
3834, 0.05290855863, 0.05211319154, 0.004246515413
3835, 0.05279397665, 0.05226251768, 0.004246515413
3836, 0.05267173658, 0.05240564242, 0.004246515413
3837, 0.05254217346, 0.05254217346, 0.004246515413
3838, 0.05240564242, 0.05267173658, 0.004246515413
3839, 0.05226251768, 0.05279397665, 0.004246515413
3840, 0.05211319154, 0.05290855863, 0.004246515413
3841, 0.05195807329, 0.05301516845, 0.004246515413
3842, 0.05179758809, 0.05311351391, 0.004246515413
3843, 0.05163217583, 0.05320332544, 0.004246515413
3844, 0.05146228989, 0.05328435687, 0.004246515413
3845, 0.05128839592, 0.05335638612, 0.004246515413
3846, 0.05111097054, 0.05341921574, 0.004246515413
3847, 0.05093050007, 0.05347267353, 0.004246515413
3848, 0.05074747916, 0.05351661296, 0.004246515413
3849, 0.05056240946, 0.0535509136, 0.004246515413
3850, 0.05037579824, 0.05357548143, 0.004246515413
3851, 0.05018815698, 0.05359024912, 0.004246515413
3852, 0.05, 0.05359517619, 0.004246515413
3853, 0.04981184302, 0.05359024912, 0.004246515413
3854, 0.04962420176, 0.05357548143, 0.004246515413
3855, 0.04943759054, 0.0535509136, 0.004246515413
3856, 0.04925252084, 0.05351661296, 0.004246515413
3857, 0.04906949993, 0.05347267353, 0.004246515413
3858, 0.04888902946, 0.05341921574, 0.004246515413
3859, 0.04871160408, 0.05335638612, 0.004246515413
3860, 0.04853771011, 0.05328435687, 0.004246515413
3861, 0.04836782417, 0.05320332544, 0.004246515413
3862, 0.04820241191, 0.05311351391, 0.004246515413
3863, 0.04804192671, 0.05301516845, 0.004246515413
3864, 0.04788680846, 0.05290855863, 0.004246515413
3865, 0.04773748232, 0.05279397665, 0.004246515413
3866, 0.04759435758, 0.05267173658, 0.004246515413
3867, 0.04745782654, 0.05254217346, 0.004246515413
3868, 0.04732826342, 0.05240564242, 0.004246515413
3869, 0.04720602335, 0.05226251768, 0.004246515413
3870, 0.04709144137, 0.05211319154, 0.004246515413
3871, 0.04698483155, 0.05195807329, 0.004246515413
3872, 0.04688648609, 0.05179758809, 0.004246515413
3873, 0.04679667456, 0.05163217583, 0.004246515413
3874, 0.04671564313, 0.05146228989, 0.004246515413
3875, 0.04664361388, 0.05128839592, 0.004246515413
3876, 0.04658078426, 0.05111097054, 0.004246515413
3877, 0.04652732647, 0.05093050007, 0.004246515413
3878, 0.04648338704, 0.05074747916, 0.004246515413
3879, 0.0464490864, 0.05056240946, 0.004246515413
3880, 0.04642451857, 0.05037579824, 0.004246515413
3881, 0.04640975088, 0.05018815698, 0.004246515413
3882, 0.04640482381, 0.05, 0.004246515413
3883, 0.04640975088, 0.04981184302, 0.004246515413
3884, 0.04642451857, 0.04962420176, 0.004246515413
3885, 0.0464490864, 0.04943759054, 0.004246515413
3886, 0.04648338704, 0.04925252084, 0.004246515413
3887, 0.04652732647, 0.04906949993, 0.004246515413
3888, 0.04658078426, 0.04888902946, 0.004246515413
3889, 0.04664361388, 0.04871160408, 0.004246515413
3890, 0.04671564313, 0.04853771011, 0.004246515413
3891, 0.04679667456, 0.04836782417, 0.004246515413
3892, 0.04688648609, 0.04820241191, 0.004246515413
3893, 0.04698483155, 0.04804192671, 0.004246515413
3894, 0.04709144137, 0.04788680846, 0.004246515413
3895, 0.04720602335, 0.04773748232, 0.004246515413
3896, 0.04732826342, 0.04759435758, 0.004246515413
3897, 0.04745782654, 0.04745782654, 0.004246515413
3898, 0.04759435758, 0.04732826342, 0.004246515413
3899, 0.04773748232, 0.04720602335, 0.004246515413
3900, 0.04788680846, 0.04709144137, 0.004246515413
3901, 0.04804192671, 0.04698483155, 0.004246515413
3902, 0.04820241191, 0.04688648609, 0.004246515413
3903, 0.04836782417, 0.04679667456, 0.004246515413
3904, 0.04853771011, 0.04671564313, 0.004246515413
3905, 0.04871160408, 0.04664361388, 0.004246515413
3906, 0.04888902946, 0.04658078426, 0.004246515413
3907, 0.04906949993, 0.04652732647, 0.004246515413
3908, 0.04925252084, 0.04648338704, 0.004246515413
3909, 0.04943759054, 0.0464490864, 0.004246515413
3910, 0.04962420176, 0.04642451857, 0.004246515413
3911, 0.04981184302, 0.04640975088, 0.004246515413
3912, 0.05, 0.04640482381, 0.004246515413
3913, 0.05018815698, 0.04640975088, 0.004246515413
3914, 0.05037579824, 0.04642451857, 0.004246515413
3915, 0.05056240946, 0.0464490864, 0.004246515413
3916, 0.05074747916, 0.04648338704, 0.004246515413
3917, 0.05093050007, 0.04652732647, 0.004246515413
3918, 0.05111097054, 0.04658078426, 0.004246515413
3919, 0.05128839592, 0.04664361388, 0.004246515413
3920, 0.05146228989, 0.04671564313, 0.004246515413
3921, 0.05163217583, 0.04679667456, 0.004246515413
3922, 0.05179758809, 0.04688648609, 0.004246515413
3923, 0.05195807329, 0.04698483155, 0.004246515413
3924, 0.05211319154, 0.04709144137, 0.004246515413
3925, 0.05226251768, 0.04720602335, 0.004246515413
3926, 0.05240564242, 0.04732826342, 0.004246515413
3927, 0.05254217346, 0.04745782654, 0.004246515413
3928, 0.05267173658, 0.04759435758, 0.004246515413
3929, 0.05279397665, 0.04773748232, 0.004246515413
3930, 0.05290855863, 0.04788680846, 0.004246515413
3931, 0.05301516845, 0.04804192671, 0.004246515413
3932, 0.05311351391, 0.04820241191, 0.004246515413
3933, 0.05320332544, 0.04836782417, 0.004246515413
3934, 0.05328435687, 0.04853771011, 0.004246515413
3935, 0.05335638612, 0.04871160408, 0.004246515413
3936, 0.05341921574, 0.04888902946, 0.004246515413
3937, 0.05347267353, 0.04906949993, 0.004246515413
3938, 0.05351661296, 0.04925252084, 0.004246515413
3939, 0.0535509136, 0.04943759054, 0.004246515413
3940, 0.05357548143, 0.04962420176, 0.004246515413
3941, 0.05359024912, 0.04981184302, 0.004246515413
3942, 0.05365418183, 0.05, 0.004373053428
3943, 0.0536491739, 0.0501912451, 0.004373053428
3944, 0.05363416384, 0.05038196601, 0.004373053428
3945, 0.05360919279, 0.05057163998, 0.004373053428
3946, 0.05357432919, 0.05075974712, 0.004373053428
3947, 0.0535296686, 0.05094577185, 0.004373053428
3948, 0.05347533344, 0.05112920429, 0.004373053428
3949, 0.05341147263, 0.05130954165, 0.004373053428
3950, 0.05333826121, 0.05148628965, 0.004373053428
3951, 0.05325589985, 0.05165896384, 0.004373053428
3952, 0.0531646143, 0.05182709092, 0.004373053428
3953, 0.05306465475, 0.05199021007, 0.004373053428
3954, 0.0529562952, 0.05214787419, 0.004373053428
3955, 0.05283983265, 0.05229965114, 0.004373053428
3956, 0.05271558632, 0.0524451249, 0.004373053428
3957, 0.05258389675, 0.05258389675, 0.004373053428
3958, 0.0524451249, 0.05271558632, 0.004373053428
3959, 0.05229965114, 0.05283983265, 0.004373053428
3960, 0.05214787419, 0.0529562952, 0.004373053428
3961, 0.05199021007, 0.05306465475, 0.004373053428
3962, 0.05182709092, 0.0531646143, 0.004373053428
3963, 0.05165896384, 0.05325589985, 0.004373053428
3964, 0.05148628965, 0.05333826121, 0.004373053428
3965, 0.05130954165, 0.05341147263, 0.004373053428
3966, 0.05112920429, 0.05347533344, 0.004373053428
3967, 0.05094577185, 0.0535296686, 0.004373053428
3968, 0.05075974712, 0.05357432919, 0.004373053428
3969, 0.05057163998, 0.05360919279, 0.004373053428
3970, 0.05038196601, 0.05363416384, 0.004373053428
3971, 0.0501912451, 0.0536491739, 0.004373053428
3972, 0.05, 0.05365418183, 0.004373053428
3973, 0.0498087549, 0.0536491739, 0.004373053428
3974, 0.04961803399, 0.05363416384, 0.004373053428
3975, 0.04942836002, 0.05360919279, 0.004373053428
3976, 0.04924025288, 0.05357432919, 0.004373053428
3977, 0.04905422815, 0.0535296686, 0.004373053428
3978, 0.04887079571, 0.05347533344, 0.004373053428
3979, 0.04869045835, 0.05341147263, 0.004373053428
3980, 0.04851371035, 0.05333826121, 0.004373053428
3981, 0.04834103616, 0.05325589985, 0.004373053428
3982, 0.04817290908, 0.0531646143, 0.004373053428
3983, 0.04800978993, 0.05306465475, 0.004373053428
3984, 0.04785212581, 0.0529562952, 0.004373053428
3985, 0.04770034886, 0.05283983265, 0.004373053428
3986, 0.0475548751, 0.05271558632, 0.004373053428
3987, 0.04741610325, 0.05258389675, 0.004373053428
3988, 0.04728441368, 0.0524451249, 0.004373053428
3989, 0.04716016735, 0.05229965114, 0.004373053428
3990, 0.0470437048, 0.05214787419, 0.004373053428
3991, 0.04693534525, 0.05199021007, 0.004373053428
3992, 0.0468353857, 0.05182709092, 0.004373053428
3993, 0.04674410015, 0.05165896384, 0.004373053428
3994, 0.04666173879, 0.05148628965, 0.004373053428
3995, 0.04658852737, 0.05130954165, 0.004373053428
3996, 0.04652466656, 0.05112920429, 0.004373053428
3997, 0.0464703314, 0.05094577185, 0.004373053428
3998, 0.04642567081, 0.05075974712, 0.004373053428
3999, 0.04639080721, 0.05057163998, 0.004373053428
4000, 0.04636583616, 0.05038196601, 0.004373053428
4001, 0.0463508261, 0.0501912451, 0.004373053428
4002, 0.04634581817, 0.05, 0.004373053428
4003, 0.0463508261, 0.0498087549, 0.004373053428
4004, 0.04636583616, 0.04961803399, 0.004373053428
4005, 0.04639080721, 0.04942836002, 0.004373053428
4006, 0.04642567081, 0.04924025288, 0.004373053428
4007, 0.0464703314, 0.04905422815, 0.004373053428
4008, 0.04652466656, 0.04887079571, 0.004373053428
4009, 0.04658852737, 0.04869045835, 0.004373053428
4010, 0.04666173879, 0.04851371035, 0.004373053428
4011, 0.04674410015, 0.04834103616, 0.004373053428
4012, 0.0468353857, 0.04817290908, 0.004373053428
4013, 0.04693534525, 0.04800978993, 0.004373053428
4014, 0.0470437048, 0.04785212581, 0.004373053428
4015, 0.04716016735, 0.04770034886, 0.004373053428
4016, 0.04728441368, 0.0475548751, 0.004373053428
4017, 0.04741610325, 0.04741610325, 0.004373053428
4018, 0.0475548751, 0.04728441368, 0.004373053428
4019, 0.04770034886, 0.04716016735, 0.004373053428
4020, 0.04785212581, 0.0470437048, 0.004373053428
4021, 0.04800978993, 0.04693534525, 0.004373053428
4022, 0.04817290908, 0.0468353857, 0.004373053428
4023, 0.04834103616, 0.04674410015, 0.004373053428
4024, 0.04851371035, 0.04666173879, 0.004373053428
4025, 0.04869045835, 0.04658852737, 0.004373053428
4026, 0.04887079571, 0.04652466656, 0.004373053428
4027, 0.04905422815, 0.0464703314, 0.004373053428
4028, 0.04924025288, 0.04642567081, 0.004373053428
4029, 0.04942836002, 0.04639080721, 0.004373053428
4030, 0.04961803399, 0.04636583616, 0.004373053428
4031, 0.0498087549, 0.0463508261, 0.004373053428
4032, 0.05, 0.04634581817, 0.004373053428
4033, 0.0501912451, 0.0463508261, 0.004373053428
4034, 0.05038196601, 0.04636583616, 0.004373053428
4035, 0.05057163998, 0.04639080721, 0.004373053428
4036, 0.05075974712, 0.04642567081, 0.004373053428
4037, 0.05094577185, 0.0464703314, 0.004373053428
4038, 0.05112920429, 0.04652466656, 0.004373053428
4039, 0.05130954165, 0.04658852737, 0.004373053428
4040, 0.05148628965, 0.04666173879, 0.004373053428
4041, 0.05165896384, 0.04674410015, 0.004373053428
4042, 0.05182709092, 0.0468353857, 0.004373053428
4043, 0.05199021007, 0.04693534525, 0.004373053428
4044, 0.05214787419, 0.0470437048, 0.004373053428
4045, 0.05229965114, 0.04716016735, 0.004373053428
4046, 0.0524451249, 0.04728441368, 0.004373053428
4047, 0.05258389675, 0.04741610325, 0.004373053428
4048, 0.05271558632, 0.0475548751, 0.004373053428
4049, 0.05283983265, 0.04770034886, 0.004373053428
4050, 0.0529562952, 0.04785212581, 0.004373053428
4051, 0.05306465475, 0.04800978993, 0.004373053428
4052, 0.0531646143, 0.04817290908, 0.004373053428
4053, 0.05325589985, 0.04834103616, 0.004373053428
4054, 0.05333826121, 0.04851371035, 0.004373053428
4055, 0.05341147263, 0.04869045835, 0.004373053428
4056, 0.05347533344, 0.04887079571, 0.004373053428
4057, 0.0535296686, 0.04905422815, 0.004373053428
4058, 0.05357432919, 0.04924025288, 0.004373053428
4059, 0.05360919279, 0.04942836002, 0.004373053428
4060, 0.05363416384, 0.04961803399, 0.004373053428
4061, 0.0536491739, 0.0498087549, 0.004373053428
4062, 0.05370873542, 0.05, 0.004501573626
4063, 0.05370365273, 0.05019410021, 0.004501573626
4064, 0.05368841858, 0.05038766841, 0.004501573626
4065, 0.05366307473, 0.05058017404, 0.004501573626
4066, 0.05362769065, 0.05077108945, 0.004501573626
4067, 0.05358236332, 0.05095989136, 0.004501573626
4068, 0.05352721699, 0.05114606227, 0.004501573626
4069, 0.05346240279, 0.05132909191, 0.004501573626
4070, 0.05338809839, 0.05150847859, 0.004501573626
4071, 0.05330450745, 0.05168373065, 0.004501573626
4072, 0.05321185909, 0.05185436771, 0.004501573626
4073, 0.05311040724, 0.05201992208, 0.004501573626
4074, 0.05300042998, 0.05217993998, 0.004501573626
4075, 0.05288222875, 0.05233398282, 0.004501573626
4076, 0.05275612754, 0.05248162838, 0.004501573626
4077, 0.05262247196, 0.05262247196, 0.004501573626
4078, 0.05248162838, 0.05275612754, 0.004501573626
4079, 0.05233398282, 0.05288222875, 0.004501573626
4080, 0.05217993998, 0.05300042998, 0.004501573626
4081, 0.05201992208, 0.05311040724, 0.004501573626
4082, 0.05185436771, 0.05321185909, 0.004501573626
4083, 0.05168373065, 0.05330450745, 0.004501573626
4084, 0.05150847859, 0.05338809839, 0.004501573626
4085, 0.05132909191, 0.05346240279, 0.004501573626
4086, 0.05114606227, 0.05352721699, 0.004501573626
4087, 0.05095989136, 0.05358236332, 0.004501573626
4088, 0.05077108945, 0.05362769065, 0.004501573626
4089, 0.05058017404, 0.05366307473, 0.004501573626
4090, 0.05038766841, 0.05368841858, 0.004501573626
4091, 0.05019410021, 0.05370365273, 0.004501573626
4092, 0.05, 0.05370873542, 0.004501573626
4093, 0.04980589979, 0.05370365273, 0.004501573626
4094, 0.04961233159, 0.05368841858, 0.004501573626
4095, 0.04941982596, 0.05366307473, 0.004501573626
4096, 0.04922891055, 0.05362769065, 0.004501573626
4097, 0.04904010864, 0.05358236332, 0.004501573626
4098, 0.04885393773, 0.05352721699, 0.004501573626
4099, 0.04867090809, 0.05346240279, 0.004501573626
4100, 0.04849152141, 0.05338809839, 0.004501573626
4101, 0.04831626935, 0.05330450745, 0.004501573626
4102, 0.04814563229, 0.05321185909, 0.004501573626
4103, 0.04798007792, 0.05311040724, 0.004501573626
4104, 0.04782006002, 0.05300042998, 0.004501573626
4105, 0.04766601718, 0.05288222875, 0.004501573626
4106, 0.04751837162, 0.05275612754, 0.004501573626
4107, 0.04737752804, 0.05262247196, 0.004501573626
4108, 0.04724387246, 0.05248162838, 0.004501573626
4109, 0.04711777125, 0.05233398282, 0.004501573626
4110, 0.04699957002, 0.05217993998, 0.004501573626
4111, 0.04688959276, 0.05201992208, 0.004501573626
4112, 0.04678814091, 0.05185436771, 0.004501573626
4113, 0.04669549255, 0.05168373065, 0.004501573626
4114, 0.04661190161, 0.05150847859, 0.004501573626
4115, 0.04653759721, 0.05132909191, 0.004501573626
4116, 0.04647278301, 0.05114606227, 0.004501573626
4117, 0.04641763668, 0.05095989136, 0.004501573626
4118, 0.04637230935, 0.05077108945, 0.004501573626
4119, 0.04633692527, 0.05058017404, 0.004501573626
4120, 0.04631158142, 0.05038766841, 0.004501573626
4121, 0.04629634727, 0.05019410021, 0.004501573626
4122, 0.04629126458, 0.05, 0.004501573626
4123, 0.04629634727, 0.04980589979, 0.004501573626
4124, 0.04631158142, 0.04961233159, 0.004501573626
4125, 0.04633692527, 0.04941982596, 0.004501573626
4126, 0.04637230935, 0.04922891055, 0.004501573626
4127, 0.04641763668, 0.04904010864, 0.004501573626
4128, 0.04647278301, 0.04885393773, 0.004501573626
4129, 0.04653759721, 0.04867090809, 0.004501573626
4130, 0.04661190161, 0.04849152141, 0.004501573626
4131, 0.04669549255, 0.04831626935, 0.004501573626
4132, 0.04678814091, 0.04814563229, 0.004501573626
4133, 0.04688959276, 0.04798007792, 0.004501573626
4134, 0.04699957002, 0.04782006002, 0.004501573626
4135, 0.04711777125, 0.04766601718, 0.004501573626
4136, 0.04724387246, 0.04751837162, 0.004501573626
4137, 0.04737752804, 0.04737752804, 0.004501573626
4138, 0.04751837162, 0.04724387246, 0.004501573626
4139, 0.04766601718, 0.04711777125, 0.004501573626
4140, 0.04782006002, 0.04699957002, 0.004501573626
4141, 0.04798007792, 0.04688959276, 0.004501573626
4142, 0.04814563229, 0.04678814091, 0.004501573626
4143, 0.04831626935, 0.04669549255, 0.004501573626
4144, 0.04849152141, 0.04661190161, 0.004501573626
4145, 0.04867090809, 0.04653759721, 0.004501573626
4146, 0.04885393773, 0.04647278301, 0.004501573626
4147, 0.04904010864, 0.04641763668, 0.004501573626
4148, 0.04922891055, 0.04637230935, 0.004501573626
4149, 0.04941982596, 0.04633692527, 0.004501573626
4150, 0.04961233159, 0.04631158142, 0.004501573626
4151, 0.04980589979, 0.04629634727, 0.004501573626
4152, 0.05, 0.04629126458, 0.004501573626
4153, 0.05019410021, 0.04629634727, 0.004501573626
4154, 0.05038766841, 0.04631158142, 0.004501573626
4155, 0.05058017404, 0.04633692527, 0.004501573626
4156, 0.05077108945, 0.04637230935, 0.004501573626
4157, 0.05095989136, 0.04641763668, 0.004501573626
4158, 0.05114606227, 0.04647278301, 0.004501573626
4159, 0.05132909191, 0.04653759721, 0.004501573626
4160, 0.05150847859, 0.04661190161, 0.004501573626
4161, 0.05168373065, 0.04669549255, 0.004501573626
4162, 0.05185436771, 0.04678814091, 0.004501573626
4163, 0.05201992208, 0.04688959276, 0.004501573626
4164, 0.05217993998, 0.04699957002, 0.004501573626
4165, 0.05233398282, 0.04711777125, 0.004501573626
4166, 0.05248162838, 0.04724387246, 0.004501573626
4167, 0.05262247196, 0.04737752804, 0.004501573626
4168, 0.05275612754, 0.04751837162, 0.004501573626
4169, 0.05288222875, 0.04766601718, 0.004501573626
4170, 0.05300042998, 0.04782006002, 0.004501573626
4171, 0.05311040724, 0.04798007792, 0.004501573626
4172, 0.05321185909, 0.04814563229, 0.004501573626
4173, 0.05330450745, 0.04831626935, 0.004501573626
4174, 0.05338809839, 0.04849152141, 0.004501573626
4175, 0.05346240279, 0.04867090809, 0.004501573626
4176, 0.05352721699, 0.04885393773, 0.004501573626
4177, 0.05358236332, 0.04904010864, 0.004501573626
4178, 0.05362769065, 0.04922891055, 0.004501573626
4179, 0.05366307473, 0.04941982596, 0.004501573626
4180, 0.05368841858, 0.04961233159, 0.004501573626
4181, 0.05370365273, 0.04980589979, 0.004501573626
4182, 0.05375877048, 0.05, 0.004631919427
4183, 0.05375361922, 0.05019671885, 0.004631919427
4184, 0.05373817955, 0.0503928985, 0.004631919427
4185, 0.05371249378, 0.05058800125, 0.004631919427
4186, 0.05367663233, 0.05078149233, 0.004631919427
4187, 0.05363069348, 0.05097284139, 0.004631919427
4188, 0.05357480316, 0.05116152396, 0.004631919427
4189, 0.05350911455, 0.05134702287, 0.004631919427
4190, 0.0534338077, 0.05152882969, 0.004631919427
4191, 0.05334908902, 0.05170644609, 0.004631919427
4192, 0.05325519073, 0.05187938524, 0.004631919427
4193, 0.05315237018, 0.05204717313, 0.004631919427
4194, 0.0530409092, 0.05220934986, 0.004631919427
4195, 0.0529211133, 0.05236547091, 0.004631919427
4196, 0.05279331083, 0.05251510837, 0.004631919427
4197, 0.0526578521, 0.0526578521, 0.004631919427
4198, 0.05251510837, 0.05279331083, 0.004631919427
4199, 0.05236547091, 0.0529211133, 0.004631919427
4200, 0.05220934986, 0.0530409092, 0.004631919427
4201, 0.05204717313, 0.05315237018, 0.004631919427
4202, 0.05187938524, 0.05325519073, 0.004631919427
4203, 0.05170644609, 0.05334908902, 0.004631919427
4204, 0.05152882969, 0.0534338077, 0.004631919427
4205, 0.05134702287, 0.05350911455, 0.004631919427
4206, 0.05116152396, 0.05357480316, 0.004631919427
4207, 0.05097284139, 0.05363069348, 0.004631919427
4208, 0.05078149233, 0.05367663233, 0.004631919427
4209, 0.05058800125, 0.05371249378, 0.004631919427
4210, 0.0503928985, 0.05373817955, 0.004631919427
4211, 0.05019671885, 0.05375361922, 0.004631919427
4212, 0.05, 0.05375877048, 0.004631919427
4213, 0.04980328115, 0.05375361922, 0.004631919427
4214, 0.0496071015, 0.05373817955, 0.004631919427
4215, 0.04941199875, 0.05371249378, 0.004631919427
4216, 0.04921850767, 0.05367663233, 0.004631919427
4217, 0.04902715861, 0.05363069348, 0.004631919427
4218, 0.04883847604, 0.05357480316, 0.004631919427
4219, 0.04865297713, 0.05350911455, 0.004631919427
4220, 0.04847117031, 0.0534338077, 0.004631919427
4221, 0.04829355391, 0.05334908902, 0.004631919427
4222, 0.04812061476, 0.05325519073, 0.004631919427
4223, 0.04795282687, 0.05315237018, 0.004631919427
4224, 0.04779065014, 0.0530409092, 0.004631919427
4225, 0.04763452909, 0.0529211133, 0.004631919427
4226, 0.04748489163, 0.05279331083, 0.004631919427
4227, 0.0473421479, 0.0526578521, 0.004631919427
4228, 0.04720668917, 0.05251510837, 0.004631919427
4229, 0.0470788867, 0.05236547091, 0.004631919427
4230, 0.0469590908, 0.05220934986, 0.004631919427
4231, 0.04684762982, 0.05204717313, 0.004631919427
4232, 0.04674480927, 0.05187938524, 0.004631919427
4233, 0.04665091098, 0.05170644609, 0.004631919427
4234, 0.0465661923, 0.05152882969, 0.004631919427
4235, 0.04649088545, 0.05134702287, 0.004631919427
4236, 0.04642519684, 0.05116152396, 0.004631919427
4237, 0.04636930652, 0.05097284139, 0.004631919427
4238, 0.04632336767, 0.05078149233, 0.004631919427
4239, 0.04628750622, 0.05058800125, 0.004631919427
4240, 0.04626182045, 0.0503928985, 0.004631919427
4241, 0.04624638078, 0.05019671885, 0.004631919427
4242, 0.04624122952, 0.05, 0.004631919427
4243, 0.04624638078, 0.04980328115, 0.004631919427
4244, 0.04626182045, 0.0496071015, 0.004631919427
4245, 0.04628750622, 0.04941199875, 0.004631919427
4246, 0.04632336767, 0.04921850767, 0.004631919427
4247, 0.04636930652, 0.04902715861, 0.004631919427
4248, 0.04642519684, 0.04883847604, 0.004631919427
4249, 0.04649088545, 0.04865297713, 0.004631919427
4250, 0.0465661923, 0.04847117031, 0.004631919427
4251, 0.04665091098, 0.04829355391, 0.004631919427
4252, 0.04674480927, 0.04812061476, 0.004631919427
4253, 0.04684762982, 0.04795282687, 0.004631919427
4254, 0.0469590908, 0.04779065014, 0.004631919427
4255, 0.0470788867, 0.04763452909, 0.004631919427
4256, 0.04720668917, 0.04748489163, 0.004631919427
4257, 0.0473421479, 0.0473421479, 0.004631919427
4258, 0.04748489163, 0.04720668917, 0.004631919427
4259, 0.04763452909, 0.0470788867, 0.004631919427
4260, 0.04779065014, 0.0469590908, 0.004631919427
4261, 0.04795282687, 0.04684762982, 0.004631919427
4262, 0.04812061476, 0.04674480927, 0.004631919427
4263, 0.04829355391, 0.04665091098, 0.004631919427
4264, 0.04847117031, 0.0465661923, 0.004631919427
4265, 0.04865297713, 0.04649088545, 0.004631919427
4266, 0.04883847604, 0.04642519684, 0.004631919427
4267, 0.04902715861, 0.04636930652, 0.004631919427
4268, 0.04921850767, 0.04632336767, 0.004631919427
4269, 0.04941199875, 0.04628750622, 0.004631919427
4270, 0.0496071015, 0.04626182045, 0.004631919427
4271, 0.04980328115, 0.04624638078, 0.004631919427
4272, 0.05, 0.04624122952, 0.004631919427
4273, 0.05019671885, 0.04624638078, 0.004631919427
4274, 0.0503928985, 0.04626182045, 0.004631919427
4275, 0.05058800125, 0.04628750622, 0.004631919427
4276, 0.05078149233, 0.04632336767, 0.004631919427
4277, 0.05097284139, 0.04636930652, 0.004631919427
4278, 0.05116152396, 0.04642519684, 0.004631919427
4279, 0.05134702287, 0.04649088545, 0.004631919427
4280, 0.05152882969, 0.0465661923, 0.004631919427
4281, 0.05170644609, 0.04665091098, 0.004631919427
4282, 0.05187938524, 0.04674480927, 0.004631919427
4283, 0.05204717313, 0.04684762982, 0.004631919427
4284, 0.05220934986, 0.0469590908, 0.004631919427
4285, 0.05236547091, 0.0470788867, 0.004631919427
4286, 0.05251510837, 0.04720668917, 0.004631919427
4287, 0.0526578521, 0.0473421479, 0.004631919427
4288, 0.05279331083, 0.04748489163, 0.004631919427
4289, 0.0529211133, 0.04763452909, 0.004631919427
4290, 0.0530409092, 0.04779065014, 0.004631919427
4291, 0.05315237018, 0.04795282687, 0.004631919427
4292, 0.05325519073, 0.04812061476, 0.004631919427
4293, 0.05334908902, 0.04829355391, 0.004631919427
4294, 0.0534338077, 0.04847117031, 0.004631919427
4295, 0.05350911455, 0.04865297713, 0.004631919427
4296, 0.05357480316, 0.04883847604, 0.004631919427
4297, 0.05363069348, 0.04902715861, 0.004631919427
4298, 0.05367663233, 0.04921850767, 0.004631919427
4299, 0.05371249378, 0.04941199875, 0.004631919427
4300, 0.05373817955, 0.0496071015, 0.004631919427
4301, 0.05375361922, 0.04980328115, 0.004631919427
4302, 0.05380422607, 0.05, 0.004763932023
4303, 0.05379901251, 0.05019909781, 0.004763932023
4304, 0.05378338612, 0.0503976499, 0.004763932023
4305, 0.05375738973, 0.05059511207, 0.004763932023
4306, 0.0537210946, 0.05079094307, 0.004763932023
4307, 0.05367460021, 0.05098460616, 0.004763932023
4308, 0.05361803399, 0.0511755705, 0.004763932023
4309, 0.05355155099, 0.05136331269, 0.004763932023
4310, 0.05347533344, 0.05154731814, 0.004763932023
4311, 0.05338959024, 0.05172708249, 0.004763932023
4312, 0.05329455641, 0.05190211303, 0.004763932023
4313, 0.05319049243, 0.05207193001, 0.004763932023
4314, 0.05307768354, 0.05223606798, 0.004763932023
4315, 0.05295643892, 0.05239407703, 0.004763932023
4316, 0.05282709092, 0.05254552409, 0.004763932023
4317, 0.05268999405, 0.05268999405, 0.004763932023
4318, 0.05254552409, 0.05282709092, 0.004763932023
4319, 0.05239407703, 0.05295643892, 0.004763932023
4320, 0.05223606798, 0.05307768354, 0.004763932023
4321, 0.05207193001, 0.05319049243, 0.004763932023
4322, 0.05190211303, 0.05329455641, 0.004763932023
4323, 0.05172708249, 0.05338959024, 0.004763932023
4324, 0.05154731814, 0.05347533344, 0.004763932023
4325, 0.05136331269, 0.05355155099, 0.004763932023
4326, 0.0511755705, 0.05361803399, 0.004763932023
4327, 0.05098460616, 0.05367460021, 0.004763932023
4328, 0.05079094307, 0.0537210946, 0.004763932023
4329, 0.05059511207, 0.05375738973, 0.004763932023
4330, 0.0503976499, 0.05378338612, 0.004763932023
4331, 0.05019909781, 0.05379901251, 0.004763932023
4332, 0.05, 0.05380422607, 0.004763932023
4333, 0.04980090219, 0.05379901251, 0.004763932023
4334, 0.0496023501, 0.05378338612, 0.004763932023
4335, 0.04940488793, 0.05375738973, 0.004763932023
4336, 0.04920905693, 0.0537210946, 0.004763932023
4337, 0.04901539384, 0.05367460021, 0.004763932023
4338, 0.0488244295, 0.05361803399, 0.004763932023
4339, 0.04863668731, 0.05355155099, 0.004763932023
4340, 0.04845268186, 0.05347533344, 0.004763932023
4341, 0.04827291751, 0.05338959024, 0.004763932023
4342, 0.04809788697, 0.05329455641, 0.004763932023
4343, 0.04792806999, 0.05319049243, 0.004763932023
4344, 0.04776393202, 0.05307768354, 0.004763932023
4345, 0.04760592297, 0.05295643892, 0.004763932023
4346, 0.04745447591, 0.05282709092, 0.004763932023
4347, 0.04731000595, 0.05268999405, 0.004763932023
4348, 0.04717290908, 0.05254552409, 0.004763932023
4349, 0.04704356108, 0.05239407703, 0.004763932023
4350, 0.04692231646, 0.05223606798, 0.004763932023
4351, 0.04680950757, 0.05207193001, 0.004763932023
4352, 0.04670544359, 0.05190211303, 0.004763932023
4353, 0.04661040976, 0.05172708249, 0.004763932023
4354, 0.04652466656, 0.05154731814, 0.004763932023
4355, 0.04644844901, 0.05136331269, 0.004763932023
4356, 0.04638196601, 0.0511755705, 0.004763932023
4357, 0.04632539979, 0.05098460616, 0.004763932023
4358, 0.0462789054, 0.05079094307, 0.004763932023
4359, 0.04624261027, 0.05059511207, 0.004763932023
4360, 0.04621661388, 0.0503976499, 0.004763932023
4361, 0.04620098749, 0.05019909781, 0.004763932023
4362, 0.04619577393, 0.05, 0.004763932023
4363, 0.04620098749, 0.04980090219, 0.004763932023
4364, 0.04621661388, 0.0496023501, 0.004763932023
4365, 0.04624261027, 0.04940488793, 0.004763932023
4366, 0.0462789054, 0.04920905693, 0.004763932023
4367, 0.04632539979, 0.04901539384, 0.004763932023
4368, 0.04638196601, 0.0488244295, 0.004763932023
4369, 0.04644844901, 0.04863668731, 0.004763932023
4370, 0.04652466656, 0.04845268186, 0.004763932023
4371, 0.04661040976, 0.04827291751, 0.004763932023
4372, 0.04670544359, 0.04809788697, 0.004763932023
4373, 0.04680950757, 0.04792806999, 0.004763932023
4374, 0.04692231646, 0.04776393202, 0.004763932023
4375, 0.04704356108, 0.04760592297, 0.004763932023
4376, 0.04717290908, 0.04745447591, 0.004763932023
4377, 0.04731000595, 0.04731000595, 0.004763932023
4378, 0.04745447591, 0.04717290908, 0.004763932023
4379, 0.04760592297, 0.04704356108, 0.004763932023
4380, 0.04776393202, 0.04692231646, 0.004763932023
4381, 0.04792806999, 0.04680950757, 0.004763932023
4382, 0.04809788697, 0.04670544359, 0.004763932023
4383, 0.04827291751, 0.04661040976, 0.004763932023
4384, 0.04845268186, 0.04652466656, 0.004763932023
4385, 0.04863668731, 0.04644844901, 0.004763932023
4386, 0.0488244295, 0.04638196601, 0.004763932023
4387, 0.04901539384, 0.04632539979, 0.004763932023
4388, 0.04920905693, 0.0462789054, 0.004763932023
4389, 0.04940488793, 0.04624261027, 0.004763932023
4390, 0.0496023501, 0.04621661388, 0.004763932023
4391, 0.04980090219, 0.04620098749, 0.004763932023
4392, 0.05, 0.04619577393, 0.004763932023
4393, 0.05019909781, 0.04620098749, 0.004763932023
4394, 0.0503976499, 0.04621661388, 0.004763932023
4395, 0.05059511207, 0.04624261027, 0.004763932023
4396, 0.05079094307, 0.0462789054, 0.004763932023
4397, 0.05098460616, 0.04632539979, 0.004763932023
4398, 0.0511755705, 0.04638196601, 0.004763932023
4399, 0.05136331269, 0.04644844901, 0.004763932023
4400, 0.05154731814, 0.04652466656, 0.004763932023
4401, 0.05172708249, 0.04661040976, 0.004763932023
4402, 0.05190211303, 0.04670544359, 0.004763932023
4403, 0.05207193001, 0.04680950757, 0.004763932023
4404, 0.05223606798, 0.04692231646, 0.004763932023
4405, 0.05239407703, 0.04704356108, 0.004763932023
4406, 0.05254552409, 0.04717290908, 0.004763932023
4407, 0.05268999405, 0.04731000595, 0.004763932023
4408, 0.05282709092, 0.04745447591, 0.004763932023
4409, 0.05295643892, 0.04760592297, 0.004763932023
4410, 0.05307768354, 0.04776393202, 0.004763932023
4411, 0.05319049243, 0.04792806999, 0.004763932023
4412, 0.05329455641, 0.04809788697, 0.004763932023
4413, 0.05338959024, 0.04827291751, 0.004763932023
4414, 0.05347533344, 0.04845268186, 0.004763932023
4415, 0.05355155099, 0.04863668731, 0.004763932023
4416, 0.05361803399, 0.0488244295, 0.004763932023
4417, 0.05367460021, 0.04901539384, 0.004763932023
4418, 0.0537210946, 0.04920905693, 0.004763932023
4419, 0.05375738973, 0.04940488793, 0.004763932023
4420, 0.05378338612, 0.0496023501, 0.004763932023
4421, 0.05379901251, 0.04980090219, 0.004763932023
4422, 0.05384504678, 0.05, 0.004897450577
4423, 0.05383977728, 0.0502012342, 0.004897450577
4424, 0.05382398322, 0.05040191683, 0.004897450577
4425, 0.05379770788, 0.05060149784, 0.004897450577
4426, 0.05376102329, 0.05079943018, 0.004897450577
4427, 0.05371402999, 0.05099517134, 0.004897450577
4428, 0.0536568568, 0.0511881848, 0.004897450577
4429, 0.05358966042, 0.05137794153, 0.004897450577
4430, 0.05351262502, 0.05156392142, 0.004897450577
4431, 0.05342596177, 0.05174561471, 0.004897450577
4432, 0.05332990819, 0.05192252339, 0.004897450577
4433, 0.05322472757, 0.05209416257, 0.004897450577
4434, 0.05311070819, 0.05226006179, 0.004897450577
4435, 0.05298816258, 0.05241976635, 0.004897450577
4436, 0.05285742662, 0.05257283849, 0.004897450577
4437, 0.05271885865, 0.05271885865, 0.004897450577
4438, 0.05257283849, 0.05285742662, 0.004897450577
4439, 0.05241976635, 0.05298816258, 0.004897450577
4440, 0.05226006179, 0.05311070819, 0.004897450577
4441, 0.05209416257, 0.05322472757, 0.004897450577
4442, 0.05192252339, 0.05332990819, 0.004897450577
4443, 0.05174561471, 0.05342596177, 0.004897450577
4444, 0.05156392142, 0.05351262502, 0.004897450577
4445, 0.05137794153, 0.05358966042, 0.004897450577
4446, 0.0511881848, 0.0536568568, 0.004897450577
4447, 0.05099517134, 0.05371402999, 0.004897450577
4448, 0.05079943018, 0.05376102329, 0.004897450577
4449, 0.05060149784, 0.05379770788, 0.004897450577
4450, 0.05040191683, 0.05382398322, 0.004897450577
4451, 0.0502012342, 0.05383977728, 0.004897450577
4452, 0.05, 0.05384504678, 0.004897450577
4453, 0.0497987658, 0.05383977728, 0.004897450577
4454, 0.04959808317, 0.05382398322, 0.004897450577
4455, 0.04939850216, 0.05379770788, 0.004897450577
4456, 0.04920056982, 0.05376102329, 0.004897450577
4457, 0.04900482866, 0.05371402999, 0.004897450577
4458, 0.0488118152, 0.0536568568, 0.004897450577
4459, 0.04862205847, 0.05358966042, 0.004897450577
4460, 0.04843607858, 0.05351262502, 0.004897450577
4461, 0.04825438529, 0.05342596177, 0.004897450577
4462, 0.04807747661, 0.05332990819, 0.004897450577
4463, 0.04790583743, 0.05322472757, 0.004897450577
4464, 0.04773993821, 0.05311070819, 0.004897450577
4465, 0.04758023365, 0.05298816258, 0.004897450577
4466, 0.04742716151, 0.05285742662, 0.004897450577
4467, 0.04728114135, 0.05271885865, 0.004897450577
4468, 0.04714257338, 0.05257283849, 0.004897450577
4469, 0.04701183742, 0.05241976635, 0.004897450577
4470, 0.04688929181, 0.05226006179, 0.004897450577
4471, 0.04677527243, 0.05209416257, 0.004897450577
4472, 0.04667009181, 0.05192252339, 0.004897450577
4473, 0.04657403823, 0.05174561471, 0.004897450577
4474, 0.04648737498, 0.05156392142, 0.004897450577
4475, 0.04641033958, 0.05137794153, 0.004897450577
4476, 0.0463431432, 0.0511881848, 0.004897450577
4477, 0.04628597001, 0.05099517134, 0.004897450577
4478, 0.04623897671, 0.05079943018, 0.004897450577
4479, 0.04620229212, 0.05060149784, 0.004897450577
4480, 0.04617601678, 0.05040191683, 0.004897450577
4481, 0.04616022272, 0.0502012342, 0.004897450577
4482, 0.04615495322, 0.05, 0.004897450577
4483, 0.04616022272, 0.0497987658, 0.004897450577
4484, 0.04617601678, 0.04959808317, 0.004897450577
4485, 0.04620229212, 0.04939850216, 0.004897450577
4486, 0.04623897671, 0.04920056982, 0.004897450577
4487, 0.04628597001, 0.04900482866, 0.004897450577
4488, 0.0463431432, 0.0488118152, 0.004897450577
4489, 0.04641033958, 0.04862205847, 0.004897450577
4490, 0.04648737498, 0.04843607858, 0.004897450577
4491, 0.04657403823, 0.04825438529, 0.004897450577
4492, 0.04667009181, 0.04807747661, 0.004897450577
4493, 0.04677527243, 0.04790583743, 0.004897450577
4494, 0.04688929181, 0.04773993821, 0.004897450577
4495, 0.04701183742, 0.04758023365, 0.004897450577
4496, 0.04714257338, 0.04742716151, 0.004897450577
4497, 0.04728114135, 0.04728114135, 0.004897450577
4498, 0.04742716151, 0.04714257338, 0.004897450577
4499, 0.04758023365, 0.04701183742, 0.004897450577
4500, 0.04773993821, 0.04688929181, 0.004897450577
4501, 0.04790583743, 0.04677527243, 0.004897450577
4502, 0.04807747661, 0.04667009181, 0.004897450577
4503, 0.04825438529, 0.04657403823, 0.004897450577
4504, 0.04843607858, 0.04648737498, 0.004897450577
4505, 0.04862205847, 0.04641033958, 0.004897450577
4506, 0.0488118152, 0.0463431432, 0.004897450577
4507, 0.04900482866, 0.04628597001, 0.004897450577
4508, 0.04920056982, 0.04623897671, 0.004897450577
4509, 0.04939850216, 0.04620229212, 0.004897450577
4510, 0.04959808317, 0.04617601678, 0.004897450577
4511, 0.0497987658, 0.04616022272, 0.004897450577
4512, 0.05, 0.04615495322, 0.004897450577
4513, 0.0502012342, 0.04616022272, 0.004897450577
4514, 0.05040191683, 0.04617601678, 0.004897450577
4515, 0.05060149784, 0.04620229212, 0.004897450577
4516, 0.05079943018, 0.04623897671, 0.004897450577
4517, 0.05099517134, 0.04628597001, 0.004897450577
4518, 0.0511881848, 0.0463431432, 0.004897450577
4519, 0.05137794153, 0.04641033958, 0.004897450577
4520, 0.05156392142, 0.04648737498, 0.004897450577
4521, 0.05174561471, 0.04657403823, 0.004897450577
4522, 0.05192252339, 0.04667009181, 0.004897450577
4523, 0.05209416257, 0.04677527243, 0.004897450577
4524, 0.05226006179, 0.04688929181, 0.004897450577
4525, 0.05241976635, 0.04701183742, 0.004897450577
4526, 0.05257283849, 0.04714257338, 0.004897450577
4527, 0.05271885865, 0.04728114135, 0.004897450577
4528, 0.05285742662, 0.04742716151, 0.004897450577
4529, 0.05298816258, 0.04758023365, 0.004897450577
4530, 0.05311070819, 0.04773993821, 0.004897450577
4531, 0.05322472757, 0.04790583743, 0.004897450577
4532, 0.05332990819, 0.04807747661, 0.004897450577
4533, 0.05342596177, 0.04825438529, 0.004897450577
4534, 0.05351262502, 0.04843607858, 0.004897450577
4535, 0.05358966042, 0.04862205847, 0.004897450577
4536, 0.0536568568, 0.0488118152, 0.004897450577
4537, 0.05371402999, 0.04900482866, 0.004897450577
4538, 0.05376102329, 0.04920056982, 0.004897450577
4539, 0.05379770788, 0.04939850216, 0.004897450577
4540, 0.05382398322, 0.04959808317, 0.004897450577
4541, 0.05383977728, 0.0497987658, 0.004897450577
4542, 0.05388118291, 0.05, 0.005032312418
4543, 0.05387586388, 0.05020312542, 0.005032312418
4544, 0.05385992138, 0.05040569408, 0.005032312418
4545, 0.0538333991, 0.05060715077, 0.005032312418
4546, 0.05379636975, 0.0508069433, 0.005032312418
4547, 0.0537489348, 0.05100452405, 0.005032312418
4548, 0.05369122429, 0.05119935148, 0.005032312418
4549, 0.05362339639, 0.05139089156, 0.005032312418
4550, 0.05354563701, 0.05157861931, 0.005032312418
4551, 0.05345815929, 0.05176202017, 0.005032312418
4552, 0.05336120299, 0.05194059145, 0.005032312418
4553, 0.05325503387, 0.05211384371, 0.005032312418
4554, 0.05313994293, 0.05228130207, 0.005032312418
4555, 0.05301624562, 0.05244250754, 0.005032312418
4556, 0.05288428099, 0.05259701827, 0.005032312418
4557, 0.05274441075, 0.05274441075, 0.005032312418
4558, 0.05259701827, 0.05288428099, 0.005032312418
4559, 0.05244250754, 0.05301624562, 0.005032312418
4560, 0.05228130207, 0.05313994293, 0.005032312418
4561, 0.05211384371, 0.05325503387, 0.005032312418
4562, 0.05194059145, 0.05336120299, 0.005032312418
4563, 0.05176202017, 0.05345815929, 0.005032312418
4564, 0.05157861931, 0.05354563701, 0.005032312418
4565, 0.05139089156, 0.05362339639, 0.005032312418
4566, 0.05119935148, 0.05369122429, 0.005032312418
4567, 0.05100452405, 0.0537489348, 0.005032312418
4568, 0.0508069433, 0.05379636975, 0.005032312418
4569, 0.05060715077, 0.0538333991, 0.005032312418
4570, 0.05040569408, 0.05385992138, 0.005032312418
4571, 0.05020312542, 0.05387586388, 0.005032312418
4572, 0.05, 0.05388118291, 0.005032312418
4573, 0.04979687458, 0.05387586388, 0.005032312418
4574, 0.04959430592, 0.05385992138, 0.005032312418
4575, 0.04939284923, 0.0538333991, 0.005032312418
4576, 0.0491930567, 0.05379636975, 0.005032312418
4577, 0.04899547595, 0.0537489348, 0.005032312418
4578, 0.04880064852, 0.05369122429, 0.005032312418
4579, 0.04860910844, 0.05362339639, 0.005032312418
4580, 0.04842138069, 0.05354563701, 0.005032312418
4581, 0.04823797983, 0.05345815929, 0.005032312418
4582, 0.04805940855, 0.05336120299, 0.005032312418
4583, 0.04788615629, 0.05325503387, 0.005032312418
4584, 0.04771869793, 0.05313994293, 0.005032312418
4585, 0.04755749246, 0.05301624562, 0.005032312418
4586, 0.04740298173, 0.05288428099, 0.005032312418
4587, 0.04725558925, 0.05274441075, 0.005032312418
4588, 0.04711571901, 0.05259701827, 0.005032312418
4589, 0.04698375438, 0.05244250754, 0.005032312418
4590, 0.04686005707, 0.05228130207, 0.005032312418
4591, 0.04674496613, 0.05211384371, 0.005032312418
4592, 0.04663879701, 0.05194059145, 0.005032312418
4593, 0.04654184071, 0.05176202017, 0.005032312418
4594, 0.04645436299, 0.05157861931, 0.005032312418
4595, 0.04637660361, 0.05139089156, 0.005032312418
4596, 0.04630877571, 0.05119935148, 0.005032312418
4597, 0.0462510652, 0.05100452405, 0.005032312418
4598, 0.04620363025, 0.0508069433, 0.005032312418
4599, 0.0461666009, 0.05060715077, 0.005032312418
4600, 0.04614007862, 0.05040569408, 0.005032312418
4601, 0.04612413612, 0.05020312542, 0.005032312418
4602, 0.04611881709, 0.05, 0.005032312418
4603, 0.04612413612, 0.04979687458, 0.005032312418
4604, 0.04614007862, 0.04959430592, 0.005032312418
4605, 0.0461666009, 0.04939284923, 0.005032312418
4606, 0.04620363025, 0.0491930567, 0.005032312418
4607, 0.0462510652, 0.04899547595, 0.005032312418
4608, 0.04630877571, 0.04880064852, 0.005032312418
4609, 0.04637660361, 0.04860910844, 0.005032312418
4610, 0.04645436299, 0.04842138069, 0.005032312418
4611, 0.04654184071, 0.04823797983, 0.005032312418
4612, 0.04663879701, 0.04805940855, 0.005032312418
4613, 0.04674496613, 0.04788615629, 0.005032312418
4614, 0.04686005707, 0.04771869793, 0.005032312418
4615, 0.04698375438, 0.04755749246, 0.005032312418
4616, 0.04711571901, 0.04740298173, 0.005032312418
4617, 0.04725558925, 0.04725558925, 0.005032312418
4618, 0.04740298173, 0.04711571901, 0.005032312418
4619, 0.04755749246, 0.04698375438, 0.005032312418
4620, 0.04771869793, 0.04686005707, 0.005032312418
4621, 0.04788615629, 0.04674496613, 0.005032312418
4622, 0.04805940855, 0.04663879701, 0.005032312418
4623, 0.04823797983, 0.04654184071, 0.005032312418
4624, 0.04842138069, 0.04645436299, 0.005032312418
4625, 0.04860910844, 0.04637660361, 0.005032312418
4626, 0.04880064852, 0.04630877571, 0.005032312418
4627, 0.04899547595, 0.0462510652, 0.005032312418
4628, 0.0491930567, 0.04620363025, 0.005032312418
4629, 0.04939284923, 0.0461666009, 0.005032312418
4630, 0.04959430592, 0.04614007862, 0.005032312418
4631, 0.04979687458, 0.04612413612, 0.005032312418
4632, 0.05, 0.04611881709, 0.005032312418
4633, 0.05020312542, 0.04612413612, 0.005032312418
4634, 0.05040569408, 0.04614007862, 0.005032312418
4635, 0.05060715077, 0.0461666009, 0.005032312418
4636, 0.0508069433, 0.04620363025, 0.005032312418
4637, 0.05100452405, 0.0462510652, 0.005032312418
4638, 0.05119935148, 0.04630877571, 0.005032312418
4639, 0.05139089156, 0.04637660361, 0.005032312418
4640, 0.05157861931, 0.04645436299, 0.005032312418
4641, 0.05176202017, 0.04654184071, 0.005032312418
4642, 0.05194059145, 0.04663879701, 0.005032312418
4643, 0.05211384371, 0.04674496613, 0.005032312418
4644, 0.05228130207, 0.04686005707, 0.005032312418
4645, 0.05244250754, 0.04698375438, 0.005032312418
4646, 0.05259701827, 0.04711571901, 0.005032312418
4647, 0.05274441075, 0.04725558925, 0.005032312418
4648, 0.05288428099, 0.04740298173, 0.005032312418
4649, 0.05301624562, 0.04755749246, 0.005032312418
4650, 0.05313994293, 0.04771869793, 0.005032312418
4651, 0.05325503387, 0.04788615629, 0.005032312418
4652, 0.05336120299, 0.04805940855, 0.005032312418
4653, 0.05345815929, 0.04823797983, 0.005032312418
4654, 0.05354563701, 0.04842138069, 0.005032312418
4655, 0.05362339639, 0.04860910844, 0.005032312418
4656, 0.05369122429, 0.04880064852, 0.005032312418
4657, 0.0537489348, 0.04899547595, 0.005032312418
4658, 0.05379636975, 0.0491930567, 0.005032312418
4659, 0.0538333991, 0.04939284923, 0.005032312418
4660, 0.05385992138, 0.04959430592, 0.005032312418
4661, 0.05387586388, 0.04979687458, 0.005032312418
4662, 0.0539125904, 0.05, 0.005168353237
4663, 0.05390722833, 0.05020476916, 0.005168353237
4664, 0.05389115682, 0.05040897706, 0.005168353237
4665, 0.05386441992, 0.05061206399, 0.005168353237
4666, 0.05382709092, 0.05081347329, 0.005168353237
4667, 0.05377927212, 0.05101265291, 0.005168353237
4668, 0.0537210946, 0.05120905693, 0.005168353237
4669, 0.05365271782, 0.051402147, 0.005168353237
4670, 0.05357432919, 0.05159139389, 0.005168353237
4671, 0.05348614358, 0.05177627887, 0.005168353237
4672, 0.05338840268, 0.0519562952, 0.005168353237
4673, 0.05328137442, 0.05213094946, 0.005168353237
4674, 0.05316535213, 0.05229976294, 0.005168353237
4675, 0.05304065383, 0.05246227292, 0.005168353237
4676, 0.05290762131, 0.05261803399, 0.005168353237
4677, 0.05276661921, 0.05276661921, 0.005168353237
4678, 0.05261803399, 0.05290762131, 0.005168353237
4679, 0.05246227292, 0.05304065383, 0.005168353237
4680, 0.05229976294, 0.05316535213, 0.005168353237
4681, 0.05213094946, 0.05328137442, 0.005168353237
4682, 0.0519562952, 0.05338840268, 0.005168353237
4683, 0.05177627887, 0.05348614358, 0.005168353237
4684, 0.05159139389, 0.05357432919, 0.005168353237
4685, 0.051402147, 0.05365271782, 0.005168353237
4686, 0.05120905693, 0.0537210946, 0.005168353237
4687, 0.05101265291, 0.05377927212, 0.005168353237
4688, 0.05081347329, 0.05382709092, 0.005168353237
4689, 0.05061206399, 0.05386441992, 0.005168353237
4690, 0.05040897706, 0.05389115682, 0.005168353237
4691, 0.05020476916, 0.05390722833, 0.005168353237
4692, 0.05, 0.0539125904, 0.005168353237
4693, 0.04979523084, 0.05390722833, 0.005168353237
4694, 0.04959102294, 0.05389115682, 0.005168353237
4695, 0.04938793601, 0.05386441992, 0.005168353237
4696, 0.04918652671, 0.05382709092, 0.005168353237
4697, 0.04898734709, 0.05377927212, 0.005168353237
4698, 0.04879094307, 0.0537210946, 0.005168353237
4699, 0.048597853, 0.05365271782, 0.005168353237
4700, 0.04840860611, 0.05357432919, 0.005168353237
4701, 0.04822372113, 0.05348614358, 0.005168353237
4702, 0.0480437048, 0.05338840268, 0.005168353237
4703, 0.04786905054, 0.05328137442, 0.005168353237
4704, 0.04770023706, 0.05316535213, 0.005168353237
4705, 0.04753772708, 0.05304065383, 0.005168353237
4706, 0.04738196601, 0.05290762131, 0.005168353237
4707, 0.04723338079, 0.05276661921, 0.005168353237
4708, 0.04709237869, 0.05261803399, 0.005168353237
4709, 0.04695934617, 0.05246227292, 0.005168353237
4710, 0.04683464787, 0.05229976294, 0.005168353237
4711, 0.04671862558, 0.05213094946, 0.005168353237
4712, 0.04661159732, 0.0519562952, 0.005168353237
4713, 0.04651385642, 0.05177627887, 0.005168353237
4714, 0.04642567081, 0.05159139389, 0.005168353237
4715, 0.04634728218, 0.051402147, 0.005168353237
4716, 0.0462789054, 0.05120905693, 0.005168353237
4717, 0.04622072788, 0.05101265291, 0.005168353237
4718, 0.04617290908, 0.05081347329, 0.005168353237
4719, 0.04613558008, 0.05061206399, 0.005168353237
4720, 0.04610884318, 0.05040897706, 0.005168353237
4721, 0.04609277167, 0.05020476916, 0.005168353237
4722, 0.0460874096, 0.05, 0.005168353237
4723, 0.04609277167, 0.04979523084, 0.005168353237
4724, 0.04610884318, 0.04959102294, 0.005168353237
4725, 0.04613558008, 0.04938793601, 0.005168353237
4726, 0.04617290908, 0.04918652671, 0.005168353237
4727, 0.04622072788, 0.04898734709, 0.005168353237
4728, 0.0462789054, 0.04879094307, 0.005168353237
4729, 0.04634728218, 0.048597853, 0.005168353237
4730, 0.04642567081, 0.04840860611, 0.005168353237
4731, 0.04651385642, 0.04822372113, 0.005168353237
4732, 0.04661159732, 0.0480437048, 0.005168353237
4733, 0.04671862558, 0.04786905054, 0.005168353237
4734, 0.04683464787, 0.04770023706, 0.005168353237
4735, 0.04695934617, 0.04753772708, 0.005168353237
4736, 0.04709237869, 0.04738196601, 0.005168353237
4737, 0.04723338079, 0.04723338079, 0.005168353237
4738, 0.04738196601, 0.04709237869, 0.005168353237
4739, 0.04753772708, 0.04695934617, 0.005168353237
4740, 0.04770023706, 0.04683464787, 0.005168353237
4741, 0.04786905054, 0.04671862558, 0.005168353237
4742, 0.0480437048, 0.04661159732, 0.005168353237
4743, 0.04822372113, 0.04651385642, 0.005168353237
4744, 0.04840860611, 0.04642567081, 0.005168353237
4745, 0.048597853, 0.04634728218, 0.005168353237
4746, 0.04879094307, 0.0462789054, 0.005168353237
4747, 0.04898734709, 0.04622072788, 0.005168353237
4748, 0.04918652671, 0.04617290908, 0.005168353237
4749, 0.04938793601, 0.04613558008, 0.005168353237
4750, 0.04959102294, 0.04610884318, 0.005168353237
4751, 0.04979523084, 0.04609277167, 0.005168353237
4752, 0.05, 0.0460874096, 0.005168353237
4753, 0.05020476916, 0.04609277167, 0.005168353237
4754, 0.05040897706, 0.04610884318, 0.005168353237
4755, 0.05061206399, 0.04613558008, 0.005168353237
4756, 0.05081347329, 0.04617290908, 0.005168353237
4757, 0.05101265291, 0.04622072788, 0.005168353237
4758, 0.05120905693, 0.0462789054, 0.005168353237
4759, 0.051402147, 0.04634728218, 0.005168353237
4760, 0.05159139389, 0.04642567081, 0.005168353237
4761, 0.05177627887, 0.04651385642, 0.005168353237
4762, 0.0519562952, 0.04661159732, 0.005168353237
4763, 0.05213094946, 0.04671862558, 0.005168353237
4764, 0.05229976294, 0.04683464787, 0.005168353237
4765, 0.05246227292, 0.04695934617, 0.005168353237
4766, 0.05261803399, 0.04709237869, 0.005168353237
4767, 0.05276661921, 0.04723338079, 0.005168353237
4768, 0.05290762131, 0.04738196601, 0.005168353237
4769, 0.05304065383, 0.04753772708, 0.005168353237
4770, 0.05316535213, 0.04770023706, 0.005168353237
4771, 0.05328137442, 0.04786905054, 0.005168353237
4772, 0.05338840268, 0.0480437048, 0.005168353237
4773, 0.05348614358, 0.04822372113, 0.005168353237
4774, 0.05357432919, 0.04840860611, 0.005168353237
4775, 0.05365271782, 0.048597853, 0.005168353237
4776, 0.0537210946, 0.04879094307, 0.005168353237
4777, 0.05377927212, 0.04898734709, 0.005168353237
4778, 0.05382709092, 0.04918652671, 0.005168353237
4779, 0.05386441992, 0.04938793601, 0.005168353237
4780, 0.05389115682, 0.04959102294, 0.005168353237
4781, 0.05390722833, 0.04979523084, 0.005168353237
4782, 0.05393923101, 0.05, 0.005305407289
4783, 0.05393383243, 0.05020616342, 0.005305407289
4784, 0.05391765149, 0.05041176176, 0.005305407289
4785, 0.05389073254, 0.0506162315, 0.005305407289
4786, 0.05385314936, 0.05081901218, 0.005305407289
4787, 0.05380500497, 0.05101954801, 0.005305407289
4788, 0.05374643132, 0.05121728933, 0.005305407289
4789, 0.05367758897, 0.05141169414, 0.005305407289
4790, 0.0535986666, 0.0516022296, 0.005305407289
4791, 0.05350988053, 0.05178837346, 0.005305407289
4792, 0.05341147413, 0.05196961551, 0.005305407289
4793, 0.05330371711, 0.05214545898, 0.005305407289
4794, 0.05318690483, 0.05231542189, 0.005305407289
4795, 0.05306135747, 0.0524790384, 0.005305407289
4796, 0.05292741914, 0.05263586004, 0.005305407289
4797, 0.05278545696, 0.05278545696, 0.005305407289
4798, 0.05263586004, 0.05292741914, 0.005305407289
4799, 0.0524790384, 0.05306135747, 0.005305407289
4800, 0.05231542189, 0.05318690483, 0.005305407289
4801, 0.05214545898, 0.05330371711, 0.005305407289
4802, 0.05196961551, 0.05341147413, 0.005305407289
4803, 0.05178837346, 0.05350988053, 0.005305407289
4804, 0.0516022296, 0.0535986666, 0.005305407289
4805, 0.05141169414, 0.05367758897, 0.005305407289
4806, 0.05121728933, 0.05374643132, 0.005305407289
4807, 0.05101954801, 0.05380500497, 0.005305407289
4808, 0.05081901218, 0.05385314936, 0.005305407289
4809, 0.0506162315, 0.05389073254, 0.005305407289
4810, 0.05041176176, 0.05391765149, 0.005305407289
4811, 0.05020616342, 0.05393383243, 0.005305407289
4812, 0.05, 0.05393923101, 0.005305407289
4813, 0.04979383658, 0.05393383243, 0.005305407289
4814, 0.04958823824, 0.05391765149, 0.005305407289
4815, 0.0493837685, 0.05389073254, 0.005305407289
4816, 0.04918098782, 0.05385314936, 0.005305407289
4817, 0.04898045199, 0.05380500497, 0.005305407289
4818, 0.04878271067, 0.05374643132, 0.005305407289
4819, 0.04858830586, 0.05367758897, 0.005305407289
4820, 0.0483977704, 0.0535986666, 0.005305407289
4821, 0.04821162654, 0.05350988053, 0.005305407289
4822, 0.04803038449, 0.05341147413, 0.005305407289
4823, 0.04785454102, 0.05330371711, 0.005305407289
4824, 0.04768457811, 0.05318690483, 0.005305407289
4825, 0.0475209616, 0.05306135747, 0.005305407289
4826, 0.04736413996, 0.05292741914, 0.005305407289
4827, 0.04721454304, 0.05278545696, 0.005305407289
4828, 0.04707258086, 0.05263586004, 0.005305407289
4829, 0.04693864253, 0.0524790384, 0.005305407289
4830, 0.04681309517, 0.05231542189, 0.005305407289
4831, 0.04669628289, 0.05214545898, 0.005305407289
4832, 0.04658852587, 0.05196961551, 0.005305407289
4833, 0.04649011947, 0.05178837346, 0.005305407289
4834, 0.0464013334, 0.0516022296, 0.005305407289
4835, 0.04632241103, 0.05141169414, 0.005305407289
4836, 0.04625356868, 0.05121728933, 0.005305407289
4837, 0.04619499503, 0.05101954801, 0.005305407289
4838, 0.04614685064, 0.05081901218, 0.005305407289
4839, 0.04610926746, 0.0506162315, 0.005305407289
4840, 0.04608234851, 0.05041176176, 0.005305407289
4841, 0.04606616757, 0.05020616342, 0.005305407289
4842, 0.04606076899, 0.05, 0.005305407289
4843, 0.04606616757, 0.04979383658, 0.005305407289
4844, 0.04608234851, 0.04958823824, 0.005305407289
4845, 0.04610926746, 0.0493837685, 0.005305407289
4846, 0.04614685064, 0.04918098782, 0.005305407289
4847, 0.04619499503, 0.04898045199, 0.005305407289
4848, 0.04625356868, 0.04878271067, 0.005305407289
4849, 0.04632241103, 0.04858830586, 0.005305407289
4850, 0.0464013334, 0.0483977704, 0.005305407289
4851, 0.04649011947, 0.04821162654, 0.005305407289
4852, 0.04658852587, 0.04803038449, 0.005305407289
4853, 0.04669628289, 0.04785454102, 0.005305407289
4854, 0.04681309517, 0.04768457811, 0.005305407289
4855, 0.04693864253, 0.0475209616, 0.005305407289
4856, 0.04707258086, 0.04736413996, 0.005305407289
4857, 0.04721454304, 0.04721454304, 0.005305407289
4858, 0.04736413996, 0.04707258086, 0.005305407289
4859, 0.0475209616, 0.04693864253, 0.005305407289
4860, 0.04768457811, 0.04681309517, 0.005305407289
4861, 0.04785454102, 0.04669628289, 0.005305407289
4862, 0.04803038449, 0.04658852587, 0.005305407289
4863, 0.04821162654, 0.04649011947, 0.005305407289
4864, 0.0483977704, 0.0464013334, 0.005305407289
4865, 0.04858830586, 0.04632241103, 0.005305407289
4866, 0.04878271067, 0.04625356868, 0.005305407289
4867, 0.04898045199, 0.04619499503, 0.005305407289
4868, 0.04918098782, 0.04614685064, 0.005305407289
4869, 0.0493837685, 0.04610926746, 0.005305407289
4870, 0.04958823824, 0.04608234851, 0.005305407289
4871, 0.04979383658, 0.04606616757, 0.005305407289
4872, 0.05, 0.04606076899, 0.005305407289
4873, 0.05020616342, 0.04606616757, 0.005305407289
4874, 0.05041176176, 0.04608234851, 0.005305407289
4875, 0.0506162315, 0.04610926746, 0.005305407289
4876, 0.05081901218, 0.04614685064, 0.005305407289
4877, 0.05101954801, 0.04619499503, 0.005305407289
4878, 0.05121728933, 0.04625356868, 0.005305407289
4879, 0.05141169414, 0.04632241103, 0.005305407289
4880, 0.0516022296, 0.0464013334, 0.005305407289
4881, 0.05178837346, 0.04649011947, 0.005305407289
4882, 0.05196961551, 0.04658852587, 0.005305407289
4883, 0.05214545898, 0.04669628289, 0.005305407289
4884, 0.05231542189, 0.04681309517, 0.005305407289
4885, 0.0524790384, 0.04693864253, 0.005305407289
4886, 0.05263586004, 0.04707258086, 0.005305407289
4887, 0.05278545696, 0.04721454304, 0.005305407289
4888, 0.05292741914, 0.04736413996, 0.005305407289
4889, 0.05306135747, 0.0475209616, 0.005305407289
4890, 0.05318690483, 0.04768457811, 0.005305407289
4891, 0.05330371711, 0.04785454102, 0.005305407289
4892, 0.05341147413, 0.04803038449, 0.005305407289
4893, 0.05350988053, 0.04821162654, 0.005305407289
4894, 0.0535986666, 0.0483977704, 0.005305407289
4895, 0.05367758897, 0.04858830586, 0.005305407289
4896, 0.05374643132, 0.04878271067, 0.005305407289
4897, 0.05380500497, 0.04898045199, 0.005305407289
4898, 0.05385314936, 0.04918098782, 0.005305407289
4899, 0.05389073254, 0.0493837685, 0.005305407289
4900, 0.05391765149, 0.04958823824, 0.005305407289
4901, 0.05393383243, 0.04979383658, 0.005305407289
4902, 0.05396107227, 0.05, 0.005443307596
4903, 0.05395564376, 0.05020730651, 0.005443307596
4904, 0.05393937311, 0.0504140448, 0.005443307596
4905, 0.0539123049, 0.05061964822, 0.005443307596
4906, 0.05387451334, 0.05082355323, 0.005443307596
4907, 0.05382610201, 0.05102520094, 0.005443307596
4908, 0.0537672036, 0.05122403865, 0.005443307596
4909, 0.05369797954, 0.05141952135, 0.005443307596
4910, 0.05361861958, 0.05161111324, 0.005443307596
4911, 0.05352934124, 0.05179828918, 0.005443307596
4912, 0.05343038922, 0.05198053614, 0.005443307596
4913, 0.05332203473, 0.05215735458, 0.005443307596
4914, 0.05320457479, 0.05232825987, 0.005443307596
4915, 0.05307833132, 0.05249278355, 0.005443307596
4916, 0.05294365036, 0.05265047469, 0.005443307596
4917, 0.05280090107, 0.05280090107, 0.005443307596
4918, 0.05265047469, 0.05294365036, 0.005443307596
4919, 0.05249278355, 0.05307833132, 0.005443307596
4920, 0.05232825987, 0.05320457479, 0.005443307596
4921, 0.05215735458, 0.05332203473, 0.005443307596
4922, 0.05198053614, 0.05343038922, 0.005443307596
4923, 0.05179828918, 0.05352934124, 0.005443307596
4924, 0.05161111324, 0.05361861958, 0.005443307596
4925, 0.05141952135, 0.05369797954, 0.005443307596
4926, 0.05122403865, 0.0537672036, 0.005443307596
4927, 0.05102520094, 0.05382610201, 0.005443307596
4928, 0.05082355323, 0.05387451334, 0.005443307596
4929, 0.05061964822, 0.0539123049, 0.005443307596
4930, 0.0504140448, 0.05393937311, 0.005443307596
4931, 0.05020730651, 0.05395564376, 0.005443307596
4932, 0.05, 0.05396107227, 0.005443307596
4933, 0.04979269349, 0.05395564376, 0.005443307596
4934, 0.0495859552, 0.05393937311, 0.005443307596
4935, 0.04938035178, 0.0539123049, 0.005443307596
4936, 0.04917644677, 0.05387451334, 0.005443307596
4937, 0.04897479906, 0.05382610201, 0.005443307596
4938, 0.04877596135, 0.0537672036, 0.005443307596
4939, 0.04858047865, 0.05369797954, 0.005443307596
4940, 0.04838888676, 0.05361861958, 0.005443307596
4941, 0.04820171082, 0.05352934124, 0.005443307596
4942, 0.04801946386, 0.05343038922, 0.005443307596
4943, 0.04784264542, 0.05332203473, 0.005443307596
4944, 0.04767174013, 0.05320457479, 0.005443307596
4945, 0.04750721645, 0.05307833132, 0.005443307596
4946, 0.04734952531, 0.05294365036, 0.005443307596
4947, 0.04719909893, 0.05280090107, 0.005443307596
4948, 0.04705634964, 0.05265047469, 0.005443307596
4949, 0.04692166868, 0.05249278355, 0.005443307596
4950, 0.04679542521, 0.05232825987, 0.005443307596
4951, 0.04667796527, 0.05215735458, 0.005443307596
4952, 0.04656961078, 0.05198053614, 0.005443307596
4953, 0.04647065876, 0.05179828918, 0.005443307596
4954, 0.04638138042, 0.05161111324, 0.005443307596
4955, 0.04630202046, 0.05141952135, 0.005443307596
4956, 0.0462327964, 0.05122403865, 0.005443307596
4957, 0.04617389799, 0.05102520094, 0.005443307596
4958, 0.04612548666, 0.05082355323, 0.005443307596
4959, 0.0460876951, 0.05061964822, 0.005443307596
4960, 0.04606062689, 0.0504140448, 0.005443307596
4961, 0.04604435624, 0.05020730651, 0.005443307596
4962, 0.04603892773, 0.05, 0.005443307596
4963, 0.04604435624, 0.04979269349, 0.005443307596
4964, 0.04606062689, 0.0495859552, 0.005443307596
4965, 0.0460876951, 0.04938035178, 0.005443307596
4966, 0.04612548666, 0.04917644677, 0.005443307596
4967, 0.04617389799, 0.04897479906, 0.005443307596
4968, 0.0462327964, 0.04877596135, 0.005443307596
4969, 0.04630202046, 0.04858047865, 0.005443307596
4970, 0.04638138042, 0.04838888676, 0.005443307596
4971, 0.04647065876, 0.04820171082, 0.005443307596
4972, 0.04656961078, 0.04801946386, 0.005443307596
4973, 0.04667796527, 0.04784264542, 0.005443307596
4974, 0.04679542521, 0.04767174013, 0.005443307596
4975, 0.04692166868, 0.04750721645, 0.005443307596
4976, 0.04705634964, 0.04734952531, 0.005443307596
4977, 0.04719909893, 0.04719909893, 0.005443307596
4978, 0.04734952531, 0.04705634964, 0.005443307596
4979, 0.04750721645, 0.04692166868, 0.005443307596
4980, 0.04767174013, 0.04679542521, 0.005443307596
4981, 0.04784264542, 0.04667796527, 0.005443307596
4982, 0.04801946386, 0.04656961078, 0.005443307596
4983, 0.04820171082, 0.04647065876, 0.005443307596
4984, 0.04838888676, 0.04638138042, 0.005443307596
4985, 0.04858047865, 0.04630202046, 0.005443307596
4986, 0.04877596135, 0.0462327964, 0.005443307596
4987, 0.04897479906, 0.04617389799, 0.005443307596
4988, 0.04917644677, 0.04612548666, 0.005443307596
4989, 0.04938035178, 0.0460876951, 0.005443307596
4990, 0.0495859552, 0.04606062689, 0.005443307596
4991, 0.04979269349, 0.04604435624, 0.005443307596
4992, 0.05, 0.04603892773, 0.005443307596
4993, 0.05020730651, 0.04604435624, 0.005443307596
4994, 0.0504140448, 0.04606062689, 0.005443307596
4995, 0.05061964822, 0.0460876951, 0.005443307596
4996, 0.05082355323, 0.04612548666, 0.005443307596
4997, 0.05102520094, 0.04617389799, 0.005443307596
4998, 0.05122403865, 0.0462327964, 0.005443307596
4999, 0.05141952135, 0.04630202046, 0.005443307596
5000, 0.05161111324, 0.04638138042, 0.005443307596
5001, 0.05179828918, 0.04647065876, 0.005443307596
5002, 0.05198053614, 0.04656961078, 0.005443307596
5003, 0.05215735458, 0.04667796527, 0.005443307596
5004, 0.05232825987, 0.04679542521, 0.005443307596
5005, 0.05249278355, 0.04692166868, 0.005443307596
5006, 0.05265047469, 0.04705634964, 0.005443307596
5007, 0.05280090107, 0.04719909893, 0.005443307596
5008, 0.05294365036, 0.04734952531, 0.005443307596
5009, 0.05307833132, 0.04750721645, 0.005443307596
5010, 0.05320457479, 0.04767174013, 0.005443307596
5011, 0.05332203473, 0.04784264542, 0.005443307596
5012, 0.05343038922, 0.04801946386, 0.005443307596
5013, 0.05352934124, 0.04820171082, 0.005443307596
5014, 0.05361861958, 0.04838888676, 0.005443307596
5015, 0.05369797954, 0.04858047865, 0.005443307596
5016, 0.0537672036, 0.04877596135, 0.005443307596
5017, 0.05382610201, 0.04897479906, 0.005443307596
5018, 0.05387451334, 0.04917644677, 0.005443307596
5019, 0.0539123049, 0.04938035178, 0.005443307596
5020, 0.05393937311, 0.0495859552, 0.005443307596
5021, 0.05395564376, 0.04979269349, 0.005443307596
5022, 0.05397808758, 0.05, 0.005581886147
5023, 0.05397263575, 0.05020819702, 0.005581886147
5024, 0.0539562952, 0.05041582338, 0.005581886147
5025, 0.05392911072, 0.05062231, 0.005581886147
5026, 0.05389115682, 0.05082709092, 0.005581886147
5027, 0.05384253753, 0.05102960483, 0.005581886147
5028, 0.05378338612, 0.05122929667, 0.005581886147
5029, 0.0537138647, 0.05142561909, 0.005581886147
5030, 0.05363416384, 0.05161803399, 0.005581886147
5031, 0.05354450199, 0.05180601397, 0.005581886147
5032, 0.0534451249, 0.05198904379, 0.005581886147
5033, 0.05333630497, 0.05216662178, 0.005581886147
5034, 0.05321834046, 0.05233826121, 0.005581886147
5035, 0.0530915547, 0.05250349163, 0.005581886147
5036, 0.0529562952, 0.05266186016, 0.005581886147
5037, 0.05281293271, 0.05281293271, 0.005581886147
5038, 0.05266186016, 0.0529562952, 0.005581886147
5039, 0.05250349163, 0.0530915547, 0.005581886147
5040, 0.05233826121, 0.05321834046, 0.005581886147
5041, 0.05216662178, 0.05333630497, 0.005581886147
5042, 0.05198904379, 0.0534451249, 0.005581886147
5043, 0.05180601397, 0.05354450199, 0.005581886147
5044, 0.05161803399, 0.05363416384, 0.005581886147
5045, 0.05142561909, 0.0537138647, 0.005581886147
5046, 0.05122929667, 0.05378338612, 0.005581886147
5047, 0.05102960483, 0.05384253753, 0.005581886147
5048, 0.05082709092, 0.05389115682, 0.005581886147
5049, 0.05062231, 0.05392911072, 0.005581886147
5050, 0.05041582338, 0.0539562952, 0.005581886147
5051, 0.05020819702, 0.05397263575, 0.005581886147
5052, 0.05, 0.05397808758, 0.005581886147
5053, 0.04979180298, 0.05397263575, 0.005581886147
5054, 0.04958417662, 0.0539562952, 0.005581886147
5055, 0.04937769, 0.05392911072, 0.005581886147
5056, 0.04917290908, 0.05389115682, 0.005581886147
5057, 0.04897039517, 0.05384253753, 0.005581886147
5058, 0.04877070333, 0.05378338612, 0.005581886147
5059, 0.04857438091, 0.0537138647, 0.005581886147
5060, 0.04838196601, 0.05363416384, 0.005581886147
5061, 0.04819398603, 0.05354450199, 0.005581886147
5062, 0.04801095621, 0.0534451249, 0.005581886147
5063, 0.04783337822, 0.05333630497, 0.005581886147
5064, 0.04766173879, 0.05321834046, 0.005581886147
5065, 0.04749650837, 0.0530915547, 0.005581886147
5066, 0.04733813984, 0.0529562952, 0.005581886147
5067, 0.04718706729, 0.05281293271, 0.005581886147
5068, 0.0470437048, 0.05266186016, 0.005581886147
5069, 0.0469084453, 0.05250349163, 0.005581886147
5070, 0.04678165954, 0.05233826121, 0.005581886147
5071, 0.04666369503, 0.05216662178, 0.005581886147
5072, 0.0465548751, 0.05198904379, 0.005581886147
5073, 0.04645549801, 0.05180601397, 0.005581886147
5074, 0.04636583616, 0.05161803399, 0.005581886147
5075, 0.0462861353, 0.05142561909, 0.005581886147
5076, 0.04621661388, 0.05122929667, 0.005581886147
5077, 0.04615746247, 0.05102960483, 0.005581886147
5078, 0.04610884318, 0.05082709092, 0.005581886147
5079, 0.04607088928, 0.05062231, 0.005581886147
5080, 0.0460437048, 0.05041582338, 0.005581886147
5081, 0.04602736425, 0.05020819702, 0.005581886147
5082, 0.04602191242, 0.05, 0.005581886147
5083, 0.04602736425, 0.04979180298, 0.005581886147
5084, 0.0460437048, 0.04958417662, 0.005581886147
5085, 0.04607088928, 0.04937769, 0.005581886147
5086, 0.04610884318, 0.04917290908, 0.005581886147
5087, 0.04615746247, 0.04897039517, 0.005581886147
5088, 0.04621661388, 0.04877070333, 0.005581886147
5089, 0.0462861353, 0.04857438091, 0.005581886147
5090, 0.04636583616, 0.04838196601, 0.005581886147
5091, 0.04645549801, 0.04819398603, 0.005581886147
5092, 0.0465548751, 0.04801095621, 0.005581886147
5093, 0.04666369503, 0.04783337822, 0.005581886147
5094, 0.04678165954, 0.04766173879, 0.005581886147
5095, 0.0469084453, 0.04749650837, 0.005581886147
5096, 0.0470437048, 0.04733813984, 0.005581886147
5097, 0.04718706729, 0.04718706729, 0.005581886147
5098, 0.04733813984, 0.0470437048, 0.005581886147
5099, 0.04749650837, 0.0469084453, 0.005581886147
5100, 0.04766173879, 0.04678165954, 0.005581886147
5101, 0.04783337822, 0.04666369503, 0.005581886147
5102, 0.04801095621, 0.0465548751, 0.005581886147
5103, 0.04819398603, 0.04645549801, 0.005581886147
5104, 0.04838196601, 0.04636583616, 0.005581886147
5105, 0.04857438091, 0.0462861353, 0.005581886147
5106, 0.04877070333, 0.04621661388, 0.005581886147
5107, 0.04897039517, 0.04615746247, 0.005581886147
5108, 0.04917290908, 0.04610884318, 0.005581886147
5109, 0.04937769, 0.04607088928, 0.005581886147
5110, 0.04958417662, 0.0460437048, 0.005581886147
5111, 0.04979180298, 0.04602736425, 0.005581886147
5112, 0.05, 0.04602191242, 0.005581886147
5113, 0.05020819702, 0.04602736425, 0.005581886147
5114, 0.05041582338, 0.0460437048, 0.005581886147
5115, 0.05062231, 0.04607088928, 0.005581886147
5116, 0.05082709092, 0.04610884318, 0.005581886147
5117, 0.05102960483, 0.04615746247, 0.005581886147
5118, 0.05122929667, 0.04621661388, 0.005581886147
5119, 0.05142561909, 0.0462861353, 0.005581886147
5120, 0.05161803399, 0.04636583616, 0.005581886147
5121, 0.05180601397, 0.04645549801, 0.005581886147
5122, 0.05198904379, 0.0465548751, 0.005581886147
5123, 0.05216662178, 0.04666369503, 0.005581886147
5124, 0.05233826121, 0.04678165954, 0.005581886147
5125, 0.05250349163, 0.0469084453, 0.005581886147
5126, 0.05266186016, 0.0470437048, 0.005581886147
5127, 0.05281293271, 0.04718706729, 0.005581886147
5128, 0.0529562952, 0.04733813984, 0.005581886147
5129, 0.0530915547, 0.04749650837, 0.005581886147
5130, 0.05321834046, 0.04766173879, 0.005581886147
5131, 0.05333630497, 0.04783337822, 0.005581886147
5132, 0.0534451249, 0.04801095621, 0.005581886147
5133, 0.05354450199, 0.04819398603, 0.005581886147
5134, 0.05363416384, 0.04838196601, 0.005581886147
5135, 0.0537138647, 0.04857438091, 0.005581886147
5136, 0.05378338612, 0.04877070333, 0.005581886147
5137, 0.05384253753, 0.04897039517, 0.005581886147
5138, 0.05389115682, 0.04917290908, 0.005581886147
5139, 0.05392911072, 0.04937769, 0.005581886147
5140, 0.0539562952, 0.04958417662, 0.005581886147
5141, 0.05397263575, 0.04979180298, 0.005581886147
5142, 0.0539902562, 0.05, 0.005720974105
5143, 0.05398478769, 0.05020883387, 0.005720974105
5144, 0.05396839716, 0.05041709535, 0.005720974105
5145, 0.05394112953, 0.05062421359, 0.005720974105
5146, 0.05390305953, 0.05082962091, 0.005720974105
5147, 0.05385429152, 0.0510327543, 0.005720974105
5148, 0.05379495916, 0.05123305698, 0.005720974105
5149, 0.05372522509, 0.05142997993, 0.005720974105
5150, 0.05364528043, 0.05162298341, 0.005720974105
5151, 0.05355534431, 0.05181153841, 0.005720974105
5152, 0.05345566324, 0.0519951281, 0.005720974105
5153, 0.05334651043, 0.05217324929, 0.005720974105
5154, 0.05322818508, 0.05234541375, 0.005720974105
5155, 0.05310101149, 0.05251114959, 0.005720974105
5156, 0.05296533825, 0.05267000255, 0.005720974105
5157, 0.05282153722, 0.05282153722, 0.005720974105
5158, 0.05267000255, 0.05296533825, 0.005720974105
5159, 0.05251114959, 0.05310101149, 0.005720974105
5160, 0.05234541375, 0.05322818508, 0.005720974105
5161, 0.05217324929, 0.05334651043, 0.005720974105
5162, 0.0519951281, 0.05345566324, 0.005720974105
5163, 0.05181153841, 0.05355534431, 0.005720974105
5164, 0.05162298341, 0.05364528043, 0.005720974105
5165, 0.05142997993, 0.05372522509, 0.005720974105
5166, 0.05123305698, 0.05379495916, 0.005720974105
5167, 0.0510327543, 0.05385429152, 0.005720974105
5168, 0.05082962091, 0.05390305953, 0.005720974105
5169, 0.05062421359, 0.05394112953, 0.005720974105
5170, 0.05041709535, 0.05396839716, 0.005720974105
5171, 0.05020883387, 0.05398478769, 0.005720974105
5172, 0.05, 0.0539902562, 0.005720974105
5173, 0.04979116613, 0.05398478769, 0.005720974105
5174, 0.04958290465, 0.05396839716, 0.005720974105
5175, 0.04937578641, 0.05394112953, 0.005720974105
5176, 0.04917037909, 0.05390305953, 0.005720974105
5177, 0.0489672457, 0.05385429152, 0.005720974105
5178, 0.04876694302, 0.05379495916, 0.005720974105
5179, 0.04857002007, 0.05372522509, 0.005720974105
5180, 0.04837701659, 0.05364528043, 0.005720974105
5181, 0.04818846159, 0.05355534431, 0.005720974105
5182, 0.0480048719, 0.05345566324, 0.005720974105
5183, 0.04782675071, 0.05334651043, 0.005720974105
5184, 0.04765458625, 0.05322818508, 0.005720974105
5185, 0.04748885041, 0.05310101149, 0.005720974105
5186, 0.04732999745, 0.05296533825, 0.005720974105
5187, 0.04717846278, 0.05282153722, 0.005720974105
5188, 0.04703466175, 0.05267000255, 0.005720974105
5189, 0.04689898851, 0.05251114959, 0.005720974105
5190, 0.04677181492, 0.05234541375, 0.005720974105
5191, 0.04665348957, 0.05217324929, 0.005720974105
5192, 0.04654433676, 0.0519951281, 0.005720974105
5193, 0.04644465569, 0.05181153841, 0.005720974105
5194, 0.04635471957, 0.05162298341, 0.005720974105
5195, 0.04627477491, 0.05142997993, 0.005720974105
5196, 0.04620504084, 0.05123305698, 0.005720974105
5197, 0.04614570848, 0.0510327543, 0.005720974105
5198, 0.04609694047, 0.05082962091, 0.005720974105
5199, 0.04605887047, 0.05062421359, 0.005720974105
5200, 0.04603160284, 0.05041709535, 0.005720974105
5201, 0.04601521231, 0.05020883387, 0.005720974105
5202, 0.0460097438, 0.05, 0.005720974105
5203, 0.04601521231, 0.04979116613, 0.005720974105
5204, 0.04603160284, 0.04958290465, 0.005720974105
5205, 0.04605887047, 0.04937578641, 0.005720974105
5206, 0.04609694047, 0.04917037909, 0.005720974105
5207, 0.04614570848, 0.0489672457, 0.005720974105
5208, 0.04620504084, 0.04876694302, 0.005720974105
5209, 0.04627477491, 0.04857002007, 0.005720974105
5210, 0.04635471957, 0.04837701659, 0.005720974105
5211, 0.04644465569, 0.04818846159, 0.005720974105
5212, 0.04654433676, 0.0480048719, 0.005720974105
5213, 0.04665348957, 0.04782675071, 0.005720974105
5214, 0.04677181492, 0.04765458625, 0.005720974105
5215, 0.04689898851, 0.04748885041, 0.005720974105
5216, 0.04703466175, 0.04732999745, 0.005720974105
5217, 0.04717846278, 0.04717846278, 0.005720974105
5218, 0.04732999745, 0.04703466175, 0.005720974105
5219, 0.04748885041, 0.04689898851, 0.005720974105
5220, 0.04765458625, 0.04677181492, 0.005720974105
5221, 0.04782675071, 0.04665348957, 0.005720974105
5222, 0.0480048719, 0.04654433676, 0.005720974105
5223, 0.04818846159, 0.04644465569, 0.005720974105
5224, 0.04837701659, 0.04635471957, 0.005720974105
5225, 0.04857002007, 0.04627477491, 0.005720974105
5226, 0.04876694302, 0.04620504084, 0.005720974105
5227, 0.0489672457, 0.04614570848, 0.005720974105
5228, 0.04917037909, 0.04609694047, 0.005720974105
5229, 0.04937578641, 0.04605887047, 0.005720974105
5230, 0.04958290465, 0.04603160284, 0.005720974105
5231, 0.04979116613, 0.04601521231, 0.005720974105
5232, 0.05, 0.0460097438, 0.005720974105
5233, 0.05020883387, 0.04601521231, 0.005720974105
5234, 0.05041709535, 0.04603160284, 0.005720974105
5235, 0.05062421359, 0.04605887047, 0.005720974105
5236, 0.05082962091, 0.04609694047, 0.005720974105
5237, 0.0510327543, 0.04614570848, 0.005720974105
5238, 0.05123305698, 0.04620504084, 0.005720974105
5239, 0.05142997993, 0.04627477491, 0.005720974105
5240, 0.05162298341, 0.04635471957, 0.005720974105
5241, 0.05181153841, 0.04644465569, 0.005720974105
5242, 0.0519951281, 0.04654433676, 0.005720974105
5243, 0.05217324929, 0.04665348957, 0.005720974105
5244, 0.05234541375, 0.04677181492, 0.005720974105
5245, 0.05251114959, 0.04689898851, 0.005720974105
5246, 0.05267000255, 0.04703466175, 0.005720974105
5247, 0.05282153722, 0.04717846278, 0.005720974105
5248, 0.05296533825, 0.04732999745, 0.005720974105
5249, 0.05310101149, 0.04748885041, 0.005720974105
5250, 0.05322818508, 0.04765458625, 0.005720974105
5251, 0.05334651043, 0.04782675071, 0.005720974105
5252, 0.05345566324, 0.0480048719, 0.005720974105
5253, 0.05355534431, 0.04818846159, 0.005720974105
5254, 0.05364528043, 0.04837701659, 0.005720974105
5255, 0.05372522509, 0.04857002007, 0.005720974105
5256, 0.05379495916, 0.04876694302, 0.005720974105
5257, 0.05385429152, 0.0489672457, 0.005720974105
5258, 0.05390305953, 0.04917037909, 0.005720974105
5259, 0.05394112953, 0.04937578641, 0.005720974105
5260, 0.05396839716, 0.04958290465, 0.005720974105
5261, 0.05398478769, 0.04979116613, 0.005720974105
5262, 0.05399756331, 0.05, 0.005860402013
5263, 0.05399208479, 0.0502092163, 0.005860402013
5264, 0.05397566424, 0.05041785915, 0.005860402013
5265, 0.05394834667, 0.05062535668, 0.005860402013
5266, 0.05391020696, 0.05083114015, 0.005860402013
5267, 0.05386134964, 0.05103464552, 0.005860402013
5268, 0.05380190863, 0.051235315, 0.005860402013
5269, 0.05373204686, 0.05143259857, 0.005860402013
5270, 0.0536519558, 0.05162595548, 0.005860402013
5271, 0.05356185499, 0.05181485576, 0.005860402013
5272, 0.05346199138, 0.05199878165, 0.005860402013
5273, 0.05335263869, 0.05217722902, 0.005860402013
5274, 0.05323409665, 0.05234970876, 0.005860402013
5275, 0.05310669018, 0.0525157481, 0.005860402013
5276, 0.05297076849, 0.05267489196, 0.005860402013
5277, 0.05282670412, 0.05282670412, 0.005860402013
5278, 0.05267489196, 0.05297076849, 0.005860402013
5279, 0.0525157481, 0.05310669018, 0.005860402013
5280, 0.05234970876, 0.05323409665, 0.005860402013
5281, 0.05217722902, 0.05335263869, 0.005860402013
5282, 0.05199878165, 0.05346199138, 0.005860402013
5283, 0.05181485576, 0.05356185499, 0.005860402013
5284, 0.05162595548, 0.0536519558, 0.005860402013
5285, 0.05143259857, 0.05373204686, 0.005860402013
5286, 0.051235315, 0.05380190863, 0.005860402013
5287, 0.05103464552, 0.05386134964, 0.005860402013
5288, 0.05083114015, 0.05391020696, 0.005860402013
5289, 0.05062535668, 0.05394834667, 0.005860402013
5290, 0.05041785915, 0.05397566424, 0.005860402013
5291, 0.0502092163, 0.05399208479, 0.005860402013
5292, 0.05, 0.05399756331, 0.005860402013
5293, 0.0497907837, 0.05399208479, 0.005860402013
5294, 0.04958214085, 0.05397566424, 0.005860402013
5295, 0.04937464332, 0.05394834667, 0.005860402013
5296, 0.04916885985, 0.05391020696, 0.005860402013
5297, 0.04896535448, 0.05386134964, 0.005860402013
5298, 0.048764685, 0.05380190863, 0.005860402013
5299, 0.04856740143, 0.05373204686, 0.005860402013
5300, 0.04837404452, 0.0536519558, 0.005860402013
5301, 0.04818514424, 0.05356185499, 0.005860402013
5302, 0.04800121835, 0.05346199138, 0.005860402013
5303, 0.04782277098, 0.05335263869, 0.005860402013
5304, 0.04765029124, 0.05323409665, 0.005860402013
5305, 0.0474842519, 0.05310669018, 0.005860402013
5306, 0.04732510804, 0.05297076849, 0.005860402013
5307, 0.04717329588, 0.05282670412, 0.005860402013
5308, 0.04702923151, 0.05267489196, 0.005860402013
5309, 0.04689330982, 0.0525157481, 0.005860402013
5310, 0.04676590335, 0.05234970876, 0.005860402013
5311, 0.04664736131, 0.05217722902, 0.005860402013
5312, 0.04653800862, 0.05199878165, 0.005860402013
5313, 0.04643814501, 0.05181485576, 0.005860402013
5314, 0.0463480442, 0.05162595548, 0.005860402013
5315, 0.04626795314, 0.05143259857, 0.005860402013
5316, 0.04619809137, 0.051235315, 0.005860402013
5317, 0.04613865036, 0.05103464552, 0.005860402013
5318, 0.04608979304, 0.05083114015, 0.005860402013
5319, 0.04605165333, 0.05062535668, 0.005860402013
5320, 0.04602433576, 0.05041785915, 0.005860402013
5321, 0.04600791521, 0.0502092163, 0.005860402013
5322, 0.04600243669, 0.05, 0.005860402013
5323, 0.04600791521, 0.0497907837, 0.005860402013
5324, 0.04602433576, 0.04958214085, 0.005860402013
5325, 0.04605165333, 0.04937464332, 0.005860402013
5326, 0.04608979304, 0.04916885985, 0.005860402013
5327, 0.04613865036, 0.04896535448, 0.005860402013
5328, 0.04619809137, 0.048764685, 0.005860402013
5329, 0.04626795314, 0.04856740143, 0.005860402013
5330, 0.0463480442, 0.04837404452, 0.005860402013
5331, 0.04643814501, 0.04818514424, 0.005860402013
5332, 0.04653800862, 0.04800121835, 0.005860402013
5333, 0.04664736131, 0.04782277098, 0.005860402013
5334, 0.04676590335, 0.04765029124, 0.005860402013
5335, 0.04689330982, 0.0474842519, 0.005860402013
5336, 0.04702923151, 0.04732510804, 0.005860402013
5337, 0.04717329588, 0.04717329588, 0.005860402013
5338, 0.04732510804, 0.04702923151, 0.005860402013
5339, 0.0474842519, 0.04689330982, 0.005860402013
5340, 0.04765029124, 0.04676590335, 0.005860402013
5341, 0.04782277098, 0.04664736131, 0.005860402013
5342, 0.04800121835, 0.04653800862, 0.005860402013
5343, 0.04818514424, 0.04643814501, 0.005860402013
5344, 0.04837404452, 0.0463480442, 0.005860402013
5345, 0.04856740143, 0.04626795314, 0.005860402013
5346, 0.048764685, 0.04619809137, 0.005860402013
5347, 0.04896535448, 0.04613865036, 0.005860402013
5348, 0.04916885985, 0.04608979304, 0.005860402013
5349, 0.04937464332, 0.04605165333, 0.005860402013
5350, 0.04958214085, 0.04602433576, 0.005860402013
5351, 0.0497907837, 0.04600791521, 0.005860402013
5352, 0.05, 0.04600243669, 0.005860402013
5353, 0.0502092163, 0.04600791521, 0.005860402013
5354, 0.05041785915, 0.04602433576, 0.005860402013
5355, 0.05062535668, 0.04605165333, 0.005860402013
5356, 0.05083114015, 0.04608979304, 0.005860402013
5357, 0.05103464552, 0.04613865036, 0.005860402013
5358, 0.051235315, 0.04619809137, 0.005860402013
5359, 0.05143259857, 0.04626795314, 0.005860402013
5360, 0.05162595548, 0.0463480442, 0.005860402013
5361, 0.05181485576, 0.04643814501, 0.005860402013
5362, 0.05199878165, 0.04653800862, 0.005860402013
5363, 0.05217722902, 0.04664736131, 0.005860402013
5364, 0.05234970876, 0.04676590335, 0.005860402013
5365, 0.0525157481, 0.04689330982, 0.005860402013
5366, 0.05267489196, 0.04702923151, 0.005860402013
5367, 0.05282670412, 0.04717329588, 0.005860402013
5368, 0.05297076849, 0.04732510804, 0.005860402013
5369, 0.05310669018, 0.0474842519, 0.005860402013
5370, 0.05323409665, 0.04765029124, 0.005860402013
5371, 0.05335263869, 0.04782277098, 0.005860402013
5372, 0.05346199138, 0.04800121835, 0.005860402013
5373, 0.05356185499, 0.04818514424, 0.005860402013
5374, 0.0536519558, 0.04837404452, 0.005860402013
5375, 0.05373204686, 0.04856740143, 0.005860402013
5376, 0.05380190863, 0.048764685, 0.005860402013
5377, 0.05386134964, 0.04896535448, 0.005860402013
5378, 0.05391020696, 0.04916885985, 0.005860402013
5379, 0.05394834667, 0.04937464332, 0.005860402013
5380, 0.05397566424, 0.04958214085, 0.005860402013
5381, 0.05399208479, 0.0497907837, 0.005860402013
5382, 0.054, 0.05, 0.006
5383, 0.05399451814, 0.05020934382, 0.006
5384, 0.05397808758, 0.05041811385, 0.006
5385, 0.05395075336, 0.05062573786, 0.006
5386, 0.0539125904, 0.05083164676, 0.006
5387, 0.05386370331, 0.05103527618, 0.006
5388, 0.05380422607, 0.05123606798, 0.006
5389, 0.05373432171, 0.0514334718, 0.006
5390, 0.05365418183, 0.05162694657, 0.006
5391, 0.0535640261, 0.051815962, 0.006
5392, 0.05346410162, 0.052, 0.006
5393, 0.05335468227, 0.05217855614, 0.006
5394, 0.05323606798, 0.05235114101, 0.006
5395, 0.05310858385, 0.05251728156, 0.006
5396, 0.0529725793, 0.05267652243, 0.006
5397, 0.05282842712, 0.05282842712, 0.006
5398, 0.05267652243, 0.0529725793, 0.006
5399, 0.05251728156, 0.05310858385, 0.006
5400, 0.05235114101, 0.05323606798, 0.006
5401, 0.05217855614, 0.05335468227, 0.006
5402, 0.052, 0.05346410162, 0.006
5403, 0.051815962, 0.0535640261, 0.006
5404, 0.05162694657, 0.05365418183, 0.006
5405, 0.0514334718, 0.05373432171, 0.006
5406, 0.05123606798, 0.05380422607, 0.006
5407, 0.05103527618, 0.05386370331, 0.006
5408, 0.05083164676, 0.0539125904, 0.006
5409, 0.05062573786, 0.05395075336, 0.006
5410, 0.05041811385, 0.05397808758, 0.006
5411, 0.05020934382, 0.05399451814, 0.006
5412, 0.05, 0.054, 0.006
5413, 0.04979065618, 0.05399451814, 0.006
5414, 0.04958188615, 0.05397808758, 0.006
5415, 0.04937426214, 0.05395075336, 0.006
5416, 0.04916835324, 0.0539125904, 0.006
5417, 0.04896472382, 0.05386370331, 0.006
5418, 0.04876393202, 0.05380422607, 0.006
5419, 0.0485665282, 0.05373432171, 0.006
5420, 0.04837305343, 0.05365418183, 0.006
5421, 0.048184038, 0.0535640261, 0.006
5422, 0.048, 0.05346410162, 0.006
5423, 0.04782144386, 0.05335468227, 0.006
5424, 0.04764885899, 0.05323606798, 0.006
5425, 0.04748271844, 0.05310858385, 0.006
5426, 0.04732347757, 0.0529725793, 0.006
5427, 0.04717157288, 0.05282842712, 0.006
5428, 0.0470274207, 0.05267652243, 0.006
5429, 0.04689141615, 0.05251728156, 0.006
5430, 0.04676393202, 0.05235114101, 0.006
5431, 0.04664531773, 0.05217855614, 0.006
5432, 0.04653589838, 0.052, 0.006
5433, 0.0464359739, 0.051815962, 0.006
5434, 0.04634581817, 0.05162694657, 0.006
5435, 0.04626567829, 0.0514334718, 0.006
5436, 0.04619577393, 0.05123606798, 0.006
5437, 0.04613629669, 0.05103527618, 0.006
5438, 0.0460874096, 0.05083164676, 0.006
5439, 0.04604924664, 0.05062573786, 0.006
5440, 0.04602191242, 0.05041811385, 0.006
5441, 0.04600548186, 0.05020934382, 0.006
5442, 0.046, 0.05, 0.006
5443, 0.04600548186, 0.04979065618, 0.006
5444, 0.04602191242, 0.04958188615, 0.006
5445, 0.04604924664, 0.04937426214, 0.006
5446, 0.0460874096, 0.04916835324, 0.006
5447, 0.04613629669, 0.04896472382, 0.006
5448, 0.04619577393, 0.04876393202, 0.006
5449, 0.04626567829, 0.0485665282, 0.006
5450, 0.04634581817, 0.04837305343, 0.006
5451, 0.0464359739, 0.048184038, 0.006
5452, 0.04653589838, 0.048, 0.006
5453, 0.04664531773, 0.04782144386, 0.006
5454, 0.04676393202, 0.04764885899, 0.006
5455, 0.04689141615, 0.04748271844, 0.006
5456, 0.0470274207, 0.04732347757, 0.006
5457, 0.04717157288, 0.04717157288, 0.006
5458, 0.04732347757, 0.0470274207, 0.006
5459, 0.04748271844, 0.04689141615, 0.006
5460, 0.04764885899, 0.04676393202, 0.006
5461, 0.04782144386, 0.04664531773, 0.006
5462, 0.048, 0.04653589838, 0.006
5463, 0.048184038, 0.0464359739, 0.006
5464, 0.04837305343, 0.04634581817, 0.006
5465, 0.0485665282, 0.04626567829, 0.006
5466, 0.04876393202, 0.04619577393, 0.006
5467, 0.04896472382, 0.04613629669, 0.006
5468, 0.04916835324, 0.0460874096, 0.006
5469, 0.04937426214, 0.04604924664, 0.006
5470, 0.04958188615, 0.04602191242, 0.006
5471, 0.04979065618, 0.04600548186, 0.006
5472, 0.05, 0.046, 0.006
5473, 0.05020934382, 0.04600548186, 0.006
5474, 0.05041811385, 0.04602191242, 0.006
5475, 0.05062573786, 0.04604924664, 0.006
5476, 0.05083164676, 0.0460874096, 0.006
5477, 0.05103527618, 0.04613629669, 0.006
5478, 0.05123606798, 0.04619577393, 0.006
5479, 0.0514334718, 0.04626567829, 0.006
5480, 0.05162694657, 0.04634581817, 0.006
5481, 0.051815962, 0.0464359739, 0.006
5482, 0.052, 0.04653589838, 0.006
5483, 0.05217855614, 0.04664531773, 0.006
5484, 0.05235114101, 0.04676393202, 0.006
5485, 0.05251728156, 0.04689141615, 0.006
5486, 0.05267652243, 0.0470274207, 0.006
5487, 0.05282842712, 0.04717157288, 0.006
5488, 0.0529725793, 0.04732347757, 0.006
5489, 0.05310858385, 0.04748271844, 0.006
5490, 0.05323606798, 0.04764885899, 0.006
5491, 0.05335468227, 0.04782144386, 0.006
5492, 0.05346410162, 0.048, 0.006
5493, 0.0535640261, 0.048184038, 0.006
5494, 0.05365418183, 0.04837305343, 0.006
5495, 0.05373432171, 0.0485665282, 0.006
5496, 0.05380422607, 0.04876393202, 0.006
5497, 0.05386370331, 0.04896472382, 0.006
5498, 0.0539125904, 0.04916835324, 0.006
5499, 0.05395075336, 0.04937426214, 0.006
5500, 0.05397808758, 0.04958188615, 0.006
5501, 0.05399451814, 0.04979065618, 0.006
5502, 0.05399756331, 0.05, 0.006139597987
5503, 0.05399208479, 0.0502092163, 0.006139597987
5504, 0.05397566424, 0.05041785915, 0.006139597987
5505, 0.05394834667, 0.05062535668, 0.006139597987
5506, 0.05391020696, 0.05083114015, 0.006139597987
5507, 0.05386134964, 0.05103464552, 0.006139597987
5508, 0.05380190863, 0.051235315, 0.006139597987
5509, 0.05373204686, 0.05143259857, 0.006139597987
5510, 0.0536519558, 0.05162595548, 0.006139597987
5511, 0.05356185499, 0.05181485576, 0.006139597987
5512, 0.05346199138, 0.05199878165, 0.006139597987
5513, 0.05335263869, 0.05217722902, 0.006139597987
5514, 0.05323409665, 0.05234970876, 0.006139597987
5515, 0.05310669018, 0.0525157481, 0.006139597987
5516, 0.05297076849, 0.05267489196, 0.006139597987
5517, 0.05282670412, 0.05282670412, 0.006139597987
5518, 0.05267489196, 0.05297076849, 0.006139597987
5519, 0.0525157481, 0.05310669018, 0.006139597987
5520, 0.05234970876, 0.05323409665, 0.006139597987
5521, 0.05217722902, 0.05335263869, 0.006139597987
5522, 0.05199878165, 0.05346199138, 0.006139597987
5523, 0.05181485576, 0.05356185499, 0.006139597987
5524, 0.05162595548, 0.0536519558, 0.006139597987
5525, 0.05143259857, 0.05373204686, 0.006139597987
5526, 0.051235315, 0.05380190863, 0.006139597987
5527, 0.05103464552, 0.05386134964, 0.006139597987
5528, 0.05083114015, 0.05391020696, 0.006139597987
5529, 0.05062535668, 0.05394834667, 0.006139597987
5530, 0.05041785915, 0.05397566424, 0.006139597987
5531, 0.0502092163, 0.05399208479, 0.006139597987
5532, 0.05, 0.05399756331, 0.006139597987
5533, 0.0497907837, 0.05399208479, 0.006139597987
5534, 0.04958214085, 0.05397566424, 0.006139597987
5535, 0.04937464332, 0.05394834667, 0.006139597987
5536, 0.04916885985, 0.05391020696, 0.006139597987
5537, 0.04896535448, 0.05386134964, 0.006139597987
5538, 0.048764685, 0.05380190863, 0.006139597987
5539, 0.04856740143, 0.05373204686, 0.006139597987
5540, 0.04837404452, 0.0536519558, 0.006139597987
5541, 0.04818514424, 0.05356185499, 0.006139597987
5542, 0.04800121835, 0.05346199138, 0.006139597987
5543, 0.04782277098, 0.05335263869, 0.006139597987
5544, 0.04765029124, 0.05323409665, 0.006139597987
5545, 0.0474842519, 0.05310669018, 0.006139597987
5546, 0.04732510804, 0.05297076849, 0.006139597987
5547, 0.04717329588, 0.05282670412, 0.006139597987
5548, 0.04702923151, 0.05267489196, 0.006139597987
5549, 0.04689330982, 0.0525157481, 0.006139597987
5550, 0.04676590335, 0.05234970876, 0.006139597987
5551, 0.04664736131, 0.05217722902, 0.006139597987
5552, 0.04653800862, 0.05199878165, 0.006139597987
5553, 0.04643814501, 0.05181485576, 0.006139597987
5554, 0.0463480442, 0.05162595548, 0.006139597987
5555, 0.04626795314, 0.05143259857, 0.006139597987
5556, 0.04619809137, 0.051235315, 0.006139597987
5557, 0.04613865036, 0.05103464552, 0.006139597987
5558, 0.04608979304, 0.05083114015, 0.006139597987
5559, 0.04605165333, 0.05062535668, 0.006139597987
5560, 0.04602433576, 0.05041785915, 0.006139597987
5561, 0.04600791521, 0.0502092163, 0.006139597987
5562, 0.04600243669, 0.05, 0.006139597987
5563, 0.04600791521, 0.0497907837, 0.006139597987
5564, 0.04602433576, 0.04958214085, 0.006139597987
5565, 0.04605165333, 0.04937464332, 0.006139597987
5566, 0.04608979304, 0.04916885985, 0.006139597987
5567, 0.04613865036, 0.04896535448, 0.006139597987
5568, 0.04619809137, 0.048764685, 0.006139597987
5569, 0.04626795314, 0.04856740143, 0.006139597987
5570, 0.0463480442, 0.04837404452, 0.006139597987
5571, 0.04643814501, 0.04818514424, 0.006139597987
5572, 0.04653800862, 0.04800121835, 0.006139597987
5573, 0.04664736131, 0.04782277098, 0.006139597987
5574, 0.04676590335, 0.04765029124, 0.006139597987
5575, 0.04689330982, 0.0474842519, 0.006139597987
5576, 0.04702923151, 0.04732510804, 0.006139597987
5577, 0.04717329588, 0.04717329588, 0.006139597987
5578, 0.04732510804, 0.04702923151, 0.006139597987
5579, 0.0474842519, 0.04689330982, 0.006139597987
5580, 0.04765029124, 0.04676590335, 0.006139597987
5581, 0.04782277098, 0.04664736131, 0.006139597987
5582, 0.04800121835, 0.04653800862, 0.006139597987
5583, 0.04818514424, 0.04643814501, 0.006139597987
5584, 0.04837404452, 0.0463480442, 0.006139597987
5585, 0.04856740143, 0.04626795314, 0.006139597987
5586, 0.048764685, 0.04619809137, 0.006139597987
5587, 0.04896535448, 0.04613865036, 0.006139597987
5588, 0.04916885985, 0.04608979304, 0.006139597987
5589, 0.04937464332, 0.04605165333, 0.006139597987
5590, 0.04958214085, 0.04602433576, 0.006139597987
5591, 0.0497907837, 0.04600791521, 0.006139597987
5592, 0.05, 0.04600243669, 0.006139597987
5593, 0.0502092163, 0.04600791521, 0.006139597987
5594, 0.05041785915, 0.04602433576, 0.006139597987
5595, 0.05062535668, 0.04605165333, 0.006139597987
5596, 0.05083114015, 0.04608979304, 0.006139597987
5597, 0.05103464552, 0.04613865036, 0.006139597987
5598, 0.051235315, 0.04619809137, 0.006139597987
5599, 0.05143259857, 0.04626795314, 0.006139597987
5600, 0.05162595548, 0.0463480442, 0.006139597987
5601, 0.05181485576, 0.04643814501, 0.006139597987
5602, 0.05199878165, 0.04653800862, 0.006139597987
5603, 0.05217722902, 0.04664736131, 0.006139597987
5604, 0.05234970876, 0.04676590335, 0.006139597987
5605, 0.0525157481, 0.04689330982, 0.006139597987
5606, 0.05267489196, 0.04702923151, 0.006139597987
5607, 0.05282670412, 0.04717329588, 0.006139597987
5608, 0.05297076849, 0.04732510804, 0.006139597987
5609, 0.05310669018, 0.0474842519, 0.006139597987
5610, 0.05323409665, 0.04765029124, 0.006139597987
5611, 0.05335263869, 0.04782277098, 0.006139597987
5612, 0.05346199138, 0.04800121835, 0.006139597987
5613, 0.05356185499, 0.04818514424, 0.006139597987
5614, 0.0536519558, 0.04837404452, 0.006139597987
5615, 0.05373204686, 0.04856740143, 0.006139597987
5616, 0.05380190863, 0.048764685, 0.006139597987
5617, 0.05386134964, 0.04896535448, 0.006139597987
5618, 0.05391020696, 0.04916885985, 0.006139597987
5619, 0.05394834667, 0.04937464332, 0.006139597987
5620, 0.05397566424, 0.04958214085, 0.006139597987
5621, 0.05399208479, 0.0497907837, 0.006139597987
5622, 0.0539902562, 0.05, 0.006279025895
5623, 0.05398478769, 0.05020883387, 0.006279025895
5624, 0.05396839716, 0.05041709535, 0.006279025895
5625, 0.05394112953, 0.05062421359, 0.006279025895
5626, 0.05390305953, 0.05082962091, 0.006279025895
5627, 0.05385429152, 0.0510327543, 0.006279025895
5628, 0.05379495916, 0.05123305698, 0.006279025895
5629, 0.05372522509, 0.05142997993, 0.006279025895
5630, 0.05364528043, 0.05162298341, 0.006279025895
5631, 0.05355534431, 0.05181153841, 0.006279025895
5632, 0.05345566324, 0.0519951281, 0.006279025895
5633, 0.05334651043, 0.05217324929, 0.006279025895
5634, 0.05322818508, 0.05234541375, 0.006279025895
5635, 0.05310101149, 0.05251114959, 0.006279025895
5636, 0.05296533825, 0.05267000255, 0.006279025895
5637, 0.05282153722, 0.05282153722, 0.006279025895
5638, 0.05267000255, 0.05296533825, 0.006279025895
5639, 0.05251114959, 0.05310101149, 0.006279025895
5640, 0.05234541375, 0.05322818508, 0.006279025895
5641, 0.05217324929, 0.05334651043, 0.006279025895
5642, 0.0519951281, 0.05345566324, 0.006279025895
5643, 0.05181153841, 0.05355534431, 0.006279025895
5644, 0.05162298341, 0.05364528043, 0.006279025895
5645, 0.05142997993, 0.05372522509, 0.006279025895
5646, 0.05123305698, 0.05379495916, 0.006279025895
5647, 0.0510327543, 0.05385429152, 0.006279025895
5648, 0.05082962091, 0.05390305953, 0.006279025895
5649, 0.05062421359, 0.05394112953, 0.006279025895
5650, 0.05041709535, 0.05396839716, 0.006279025895
5651, 0.05020883387, 0.05398478769, 0.006279025895
5652, 0.05, 0.0539902562, 0.006279025895
5653, 0.04979116613, 0.05398478769, 0.006279025895
5654, 0.04958290465, 0.05396839716, 0.006279025895
5655, 0.04937578641, 0.05394112953, 0.006279025895
5656, 0.04917037909, 0.05390305953, 0.006279025895
5657, 0.0489672457, 0.05385429152, 0.006279025895
5658, 0.04876694302, 0.05379495916, 0.006279025895
5659, 0.04857002007, 0.05372522509, 0.006279025895
5660, 0.04837701659, 0.05364528043, 0.006279025895
5661, 0.04818846159, 0.05355534431, 0.006279025895
5662, 0.0480048719, 0.05345566324, 0.006279025895
5663, 0.04782675071, 0.05334651043, 0.006279025895
5664, 0.04765458625, 0.05322818508, 0.006279025895
5665, 0.04748885041, 0.05310101149, 0.006279025895
5666, 0.04732999745, 0.05296533825, 0.006279025895
5667, 0.04717846278, 0.05282153722, 0.006279025895
5668, 0.04703466175, 0.05267000255, 0.006279025895
5669, 0.04689898851, 0.05251114959, 0.006279025895
5670, 0.04677181492, 0.05234541375, 0.006279025895
5671, 0.04665348957, 0.05217324929, 0.006279025895
5672, 0.04654433676, 0.0519951281, 0.006279025895
5673, 0.04644465569, 0.05181153841, 0.006279025895
5674, 0.04635471957, 0.05162298341, 0.006279025895
5675, 0.04627477491, 0.05142997993, 0.006279025895
5676, 0.04620504084, 0.05123305698, 0.006279025895
5677, 0.04614570848, 0.0510327543, 0.006279025895
5678, 0.04609694047, 0.05082962091, 0.006279025895
5679, 0.04605887047, 0.05062421359, 0.006279025895
5680, 0.04603160284, 0.05041709535, 0.006279025895
5681, 0.04601521231, 0.05020883387, 0.006279025895
5682, 0.0460097438, 0.05, 0.006279025895
5683, 0.04601521231, 0.04979116613, 0.006279025895
5684, 0.04603160284, 0.04958290465, 0.006279025895
5685, 0.04605887047, 0.04937578641, 0.006279025895
5686, 0.04609694047, 0.04917037909, 0.006279025895
5687, 0.04614570848, 0.0489672457, 0.006279025895
5688, 0.04620504084, 0.04876694302, 0.006279025895
5689, 0.04627477491, 0.04857002007, 0.006279025895
5690, 0.04635471957, 0.04837701659, 0.006279025895
5691, 0.04644465569, 0.04818846159, 0.006279025895
5692, 0.04654433676, 0.0480048719, 0.006279025895
5693, 0.04665348957, 0.04782675071, 0.006279025895
5694, 0.04677181492, 0.04765458625, 0.006279025895
5695, 0.04689898851, 0.04748885041, 0.006279025895
5696, 0.04703466175, 0.04732999745, 0.006279025895
5697, 0.04717846278, 0.04717846278, 0.006279025895
5698, 0.04732999745, 0.04703466175, 0.006279025895
5699, 0.04748885041, 0.04689898851, 0.006279025895
5700, 0.04765458625, 0.04677181492, 0.006279025895
5701, 0.04782675071, 0.04665348957, 0.006279025895
5702, 0.0480048719, 0.04654433676, 0.006279025895
5703, 0.04818846159, 0.04644465569, 0.006279025895
5704, 0.04837701659, 0.04635471957, 0.006279025895
5705, 0.04857002007, 0.04627477491, 0.006279025895
5706, 0.04876694302, 0.04620504084, 0.006279025895
5707, 0.0489672457, 0.04614570848, 0.006279025895
5708, 0.04917037909, 0.04609694047, 0.006279025895
5709, 0.04937578641, 0.04605887047, 0.006279025895
5710, 0.04958290465, 0.04603160284, 0.006279025895
5711, 0.04979116613, 0.04601521231, 0.006279025895
5712, 0.05, 0.0460097438, 0.006279025895
5713, 0.05020883387, 0.04601521231, 0.006279025895
5714, 0.05041709535, 0.04603160284, 0.006279025895
5715, 0.05062421359, 0.04605887047, 0.006279025895
5716, 0.05082962091, 0.04609694047, 0.006279025895
5717, 0.0510327543, 0.04614570848, 0.006279025895
5718, 0.05123305698, 0.04620504084, 0.006279025895
5719, 0.05142997993, 0.04627477491, 0.006279025895
5720, 0.05162298341, 0.04635471957, 0.006279025895
5721, 0.05181153841, 0.04644465569, 0.006279025895
5722, 0.0519951281, 0.04654433676, 0.006279025895
5723, 0.05217324929, 0.04665348957, 0.006279025895
5724, 0.05234541375, 0.04677181492, 0.006279025895
5725, 0.05251114959, 0.04689898851, 0.006279025895
5726, 0.05267000255, 0.04703466175, 0.006279025895
5727, 0.05282153722, 0.04717846278, 0.006279025895
5728, 0.05296533825, 0.04732999745, 0.006279025895
5729, 0.05310101149, 0.04748885041, 0.006279025895
5730, 0.05322818508, 0.04765458625, 0.006279025895
5731, 0.05334651043, 0.04782675071, 0.006279025895
5732, 0.05345566324, 0.0480048719, 0.006279025895
5733, 0.05355534431, 0.04818846159, 0.006279025895
5734, 0.05364528043, 0.04837701659, 0.006279025895
5735, 0.05372522509, 0.04857002007, 0.006279025895
5736, 0.05379495916, 0.04876694302, 0.006279025895
5737, 0.05385429152, 0.0489672457, 0.006279025895
5738, 0.05390305953, 0.04917037909, 0.006279025895
5739, 0.05394112953, 0.04937578641, 0.006279025895
5740, 0.05396839716, 0.04958290465, 0.006279025895
5741, 0.05398478769, 0.04979116613, 0.006279025895
5742, 0.05397808758, 0.05, 0.006418113853
5743, 0.05397263575, 0.05020819702, 0.006418113853
5744, 0.0539562952, 0.05041582338, 0.006418113853
5745, 0.05392911072, 0.05062231, 0.006418113853
5746, 0.05389115682, 0.05082709092, 0.006418113853
5747, 0.05384253753, 0.05102960483, 0.006418113853
5748, 0.05378338612, 0.05122929667, 0.006418113853
5749, 0.0537138647, 0.05142561909, 0.006418113853
5750, 0.05363416384, 0.05161803399, 0.006418113853
5751, 0.05354450199, 0.05180601397, 0.006418113853
5752, 0.0534451249, 0.05198904379, 0.006418113853
5753, 0.05333630497, 0.05216662178, 0.006418113853
5754, 0.05321834046, 0.05233826121, 0.006418113853
5755, 0.0530915547, 0.05250349163, 0.006418113853
5756, 0.0529562952, 0.05266186016, 0.006418113853
5757, 0.05281293271, 0.05281293271, 0.006418113853
5758, 0.05266186016, 0.0529562952, 0.006418113853
5759, 0.05250349163, 0.0530915547, 0.006418113853
5760, 0.05233826121, 0.05321834046, 0.006418113853
5761, 0.05216662178, 0.05333630497, 0.006418113853
5762, 0.05198904379, 0.0534451249, 0.006418113853
5763, 0.05180601397, 0.05354450199, 0.006418113853
5764, 0.05161803399, 0.05363416384, 0.006418113853
5765, 0.05142561909, 0.0537138647, 0.006418113853
5766, 0.05122929667, 0.05378338612, 0.006418113853
5767, 0.05102960483, 0.05384253753, 0.006418113853
5768, 0.05082709092, 0.05389115682, 0.006418113853
5769, 0.05062231, 0.05392911072, 0.006418113853
5770, 0.05041582338, 0.0539562952, 0.006418113853
5771, 0.05020819702, 0.05397263575, 0.006418113853
5772, 0.05, 0.05397808758, 0.006418113853
5773, 0.04979180298, 0.05397263575, 0.006418113853
5774, 0.04958417662, 0.0539562952, 0.006418113853
5775, 0.04937769, 0.05392911072, 0.006418113853
5776, 0.04917290908, 0.05389115682, 0.006418113853
5777, 0.04897039517, 0.05384253753, 0.006418113853
5778, 0.04877070333, 0.05378338612, 0.006418113853
5779, 0.04857438091, 0.0537138647, 0.006418113853
5780, 0.04838196601, 0.05363416384, 0.006418113853
5781, 0.04819398603, 0.05354450199, 0.006418113853
5782, 0.04801095621, 0.0534451249, 0.006418113853
5783, 0.04783337822, 0.05333630497, 0.006418113853
5784, 0.04766173879, 0.05321834046, 0.006418113853
5785, 0.04749650837, 0.0530915547, 0.006418113853
5786, 0.04733813984, 0.0529562952, 0.006418113853
5787, 0.04718706729, 0.05281293271, 0.006418113853
5788, 0.0470437048, 0.05266186016, 0.006418113853
5789, 0.0469084453, 0.05250349163, 0.006418113853
5790, 0.04678165954, 0.05233826121, 0.006418113853
5791, 0.04666369503, 0.05216662178, 0.006418113853
5792, 0.0465548751, 0.05198904379, 0.006418113853
5793, 0.04645549801, 0.05180601397, 0.006418113853
5794, 0.04636583616, 0.05161803399, 0.006418113853
5795, 0.0462861353, 0.05142561909, 0.006418113853
5796, 0.04621661388, 0.05122929667, 0.006418113853
5797, 0.04615746247, 0.05102960483, 0.006418113853
5798, 0.04610884318, 0.05082709092, 0.006418113853
5799, 0.04607088928, 0.05062231, 0.006418113853
5800, 0.0460437048, 0.05041582338, 0.006418113853
5801, 0.04602736425, 0.05020819702, 0.006418113853
5802, 0.04602191242, 0.05, 0.006418113853
5803, 0.04602736425, 0.04979180298, 0.006418113853
5804, 0.0460437048, 0.04958417662, 0.006418113853
5805, 0.04607088928, 0.04937769, 0.006418113853
5806, 0.04610884318, 0.04917290908, 0.006418113853
5807, 0.04615746247, 0.04897039517, 0.006418113853
5808, 0.04621661388, 0.04877070333, 0.006418113853
5809, 0.0462861353, 0.04857438091, 0.006418113853
5810, 0.04636583616, 0.04838196601, 0.006418113853
5811, 0.04645549801, 0.04819398603, 0.006418113853
5812, 0.0465548751, 0.04801095621, 0.006418113853
5813, 0.04666369503, 0.04783337822, 0.006418113853
5814, 0.04678165954, 0.04766173879, 0.006418113853
5815, 0.0469084453, 0.04749650837, 0.006418113853
5816, 0.0470437048, 0.04733813984, 0.006418113853
5817, 0.04718706729, 0.04718706729, 0.006418113853
5818, 0.04733813984, 0.0470437048, 0.006418113853
5819, 0.04749650837, 0.0469084453, 0.006418113853
5820, 0.04766173879, 0.04678165954, 0.006418113853
5821, 0.04783337822, 0.04666369503, 0.006418113853
5822, 0.04801095621, 0.0465548751, 0.006418113853
5823, 0.04819398603, 0.04645549801, 0.006418113853
5824, 0.04838196601, 0.04636583616, 0.006418113853
5825, 0.04857438091, 0.0462861353, 0.006418113853
5826, 0.04877070333, 0.04621661388, 0.006418113853
5827, 0.04897039517, 0.04615746247, 0.006418113853
5828, 0.04917290908, 0.04610884318, 0.006418113853
5829, 0.04937769, 0.04607088928, 0.006418113853
5830, 0.04958417662, 0.0460437048, 0.006418113853
5831, 0.04979180298, 0.04602736425, 0.006418113853
5832, 0.05, 0.04602191242, 0.006418113853
5833, 0.05020819702, 0.04602736425, 0.006418113853
5834, 0.05041582338, 0.0460437048, 0.006418113853
5835, 0.05062231, 0.04607088928, 0.006418113853
5836, 0.05082709092, 0.04610884318, 0.006418113853
5837, 0.05102960483, 0.04615746247, 0.006418113853
5838, 0.05122929667, 0.04621661388, 0.006418113853
5839, 0.05142561909, 0.0462861353, 0.006418113853
5840, 0.05161803399, 0.04636583616, 0.006418113853
5841, 0.05180601397, 0.04645549801, 0.006418113853
5842, 0.05198904379, 0.0465548751, 0.006418113853
5843, 0.05216662178, 0.04666369503, 0.006418113853
5844, 0.05233826121, 0.04678165954, 0.006418113853
5845, 0.05250349163, 0.0469084453, 0.006418113853
5846, 0.05266186016, 0.0470437048, 0.006418113853
5847, 0.05281293271, 0.04718706729, 0.006418113853
5848, 0.0529562952, 0.04733813984, 0.006418113853
5849, 0.0530915547, 0.04749650837, 0.006418113853
5850, 0.05321834046, 0.04766173879, 0.006418113853
5851, 0.05333630497, 0.04783337822, 0.006418113853
5852, 0.0534451249, 0.04801095621, 0.006418113853
5853, 0.05354450199, 0.04819398603, 0.006418113853
5854, 0.05363416384, 0.04838196601, 0.006418113853
5855, 0.0537138647, 0.04857438091, 0.006418113853
5856, 0.05378338612, 0.04877070333, 0.006418113853
5857, 0.05384253753, 0.04897039517, 0.006418113853
5858, 0.05389115682, 0.04917290908, 0.006418113853
5859, 0.05392911072, 0.04937769, 0.006418113853
5860, 0.0539562952, 0.04958417662, 0.006418113853
5861, 0.05397263575, 0.04979180298, 0.006418113853
5862, 0.05396107227, 0.05, 0.006556692404
5863, 0.05395564376, 0.05020730651, 0.006556692404
5864, 0.05393937311, 0.0504140448, 0.006556692404
5865, 0.0539123049, 0.05061964822, 0.006556692404
5866, 0.05387451334, 0.05082355323, 0.006556692404
5867, 0.05382610201, 0.05102520094, 0.006556692404
5868, 0.0537672036, 0.05122403865, 0.006556692404
5869, 0.05369797954, 0.05141952135, 0.006556692404
5870, 0.05361861958, 0.05161111324, 0.006556692404
5871, 0.05352934124, 0.05179828918, 0.006556692404
5872, 0.05343038922, 0.05198053614, 0.006556692404
5873, 0.05332203473, 0.05215735458, 0.006556692404
5874, 0.05320457479, 0.05232825987, 0.006556692404
5875, 0.05307833132, 0.05249278355, 0.006556692404
5876, 0.05294365036, 0.05265047469, 0.006556692404
5877, 0.05280090107, 0.05280090107, 0.006556692404
5878, 0.05265047469, 0.05294365036, 0.006556692404
5879, 0.05249278355, 0.05307833132, 0.006556692404
5880, 0.05232825987, 0.05320457479, 0.006556692404
5881, 0.05215735458, 0.05332203473, 0.006556692404
5882, 0.05198053614, 0.05343038922, 0.006556692404
5883, 0.05179828918, 0.05352934124, 0.006556692404
5884, 0.05161111324, 0.05361861958, 0.006556692404
5885, 0.05141952135, 0.05369797954, 0.006556692404
5886, 0.05122403865, 0.0537672036, 0.006556692404
5887, 0.05102520094, 0.05382610201, 0.006556692404
5888, 0.05082355323, 0.05387451334, 0.006556692404
5889, 0.05061964822, 0.0539123049, 0.006556692404
5890, 0.0504140448, 0.05393937311, 0.006556692404
5891, 0.05020730651, 0.05395564376, 0.006556692404
5892, 0.05, 0.05396107227, 0.006556692404
5893, 0.04979269349, 0.05395564376, 0.006556692404
5894, 0.0495859552, 0.05393937311, 0.006556692404
5895, 0.04938035178, 0.0539123049, 0.006556692404
5896, 0.04917644677, 0.05387451334, 0.006556692404
5897, 0.04897479906, 0.05382610201, 0.006556692404
5898, 0.04877596135, 0.0537672036, 0.006556692404
5899, 0.04858047865, 0.05369797954, 0.006556692404
5900, 0.04838888676, 0.05361861958, 0.006556692404
5901, 0.04820171082, 0.05352934124, 0.006556692404
5902, 0.04801946386, 0.05343038922, 0.006556692404
5903, 0.04784264542, 0.05332203473, 0.006556692404
5904, 0.04767174013, 0.05320457479, 0.006556692404
5905, 0.04750721645, 0.05307833132, 0.006556692404
5906, 0.04734952531, 0.05294365036, 0.006556692404
5907, 0.04719909893, 0.05280090107, 0.006556692404
5908, 0.04705634964, 0.05265047469, 0.006556692404
5909, 0.04692166868, 0.05249278355, 0.006556692404
5910, 0.04679542521, 0.05232825987, 0.006556692404
5911, 0.04667796527, 0.05215735458, 0.006556692404
5912, 0.04656961078, 0.05198053614, 0.006556692404
5913, 0.04647065876, 0.05179828918, 0.006556692404
5914, 0.04638138042, 0.05161111324, 0.006556692404
5915, 0.04630202046, 0.05141952135, 0.006556692404
5916, 0.0462327964, 0.05122403865, 0.006556692404
5917, 0.04617389799, 0.05102520094, 0.006556692404
5918, 0.04612548666, 0.05082355323, 0.006556692404
5919, 0.0460876951, 0.05061964822, 0.006556692404
5920, 0.04606062689, 0.0504140448, 0.006556692404
5921, 0.04604435624, 0.05020730651, 0.006556692404
5922, 0.04603892773, 0.05, 0.006556692404
5923, 0.04604435624, 0.04979269349, 0.006556692404
5924, 0.04606062689, 0.0495859552, 0.006556692404
5925, 0.0460876951, 0.04938035178, 0.006556692404
5926, 0.04612548666, 0.04917644677, 0.006556692404
5927, 0.04617389799, 0.04897479906, 0.006556692404
5928, 0.0462327964, 0.04877596135, 0.006556692404
5929, 0.04630202046, 0.04858047865, 0.006556692404
5930, 0.04638138042, 0.04838888676, 0.006556692404
5931, 0.04647065876, 0.04820171082, 0.006556692404
5932, 0.04656961078, 0.04801946386, 0.006556692404
5933, 0.04667796527, 0.04784264542, 0.006556692404
5934, 0.04679542521, 0.04767174013, 0.006556692404
5935, 0.04692166868, 0.04750721645, 0.006556692404
5936, 0.04705634964, 0.04734952531, 0.006556692404
5937, 0.04719909893, 0.04719909893, 0.006556692404
5938, 0.04734952531, 0.04705634964, 0.006556692404
5939, 0.04750721645, 0.04692166868, 0.006556692404
5940, 0.04767174013, 0.04679542521, 0.006556692404
5941, 0.04784264542, 0.04667796527, 0.006556692404
5942, 0.04801946386, 0.04656961078, 0.006556692404
5943, 0.04820171082, 0.04647065876, 0.006556692404
5944, 0.04838888676, 0.04638138042, 0.006556692404
5945, 0.04858047865, 0.04630202046, 0.006556692404
5946, 0.04877596135, 0.0462327964, 0.006556692404
5947, 0.04897479906, 0.04617389799, 0.006556692404
5948, 0.04917644677, 0.04612548666, 0.006556692404
5949, 0.04938035178, 0.0460876951, 0.006556692404
5950, 0.0495859552, 0.04606062689, 0.006556692404
5951, 0.04979269349, 0.04604435624, 0.006556692404
5952, 0.05, 0.04603892773, 0.006556692404
5953, 0.05020730651, 0.04604435624, 0.006556692404
5954, 0.0504140448, 0.04606062689, 0.006556692404
5955, 0.05061964822, 0.0460876951, 0.006556692404
5956, 0.05082355323, 0.04612548666, 0.006556692404
5957, 0.05102520094, 0.04617389799, 0.006556692404
5958, 0.05122403865, 0.0462327964, 0.006556692404
5959, 0.05141952135, 0.04630202046, 0.006556692404
5960, 0.05161111324, 0.04638138042, 0.006556692404
5961, 0.05179828918, 0.04647065876, 0.006556692404
5962, 0.05198053614, 0.04656961078, 0.006556692404
5963, 0.05215735458, 0.04667796527, 0.006556692404
5964, 0.05232825987, 0.04679542521, 0.006556692404
5965, 0.05249278355, 0.04692166868, 0.006556692404
5966, 0.05265047469, 0.04705634964, 0.006556692404
5967, 0.05280090107, 0.04719909893, 0.006556692404
5968, 0.05294365036, 0.04734952531, 0.006556692404
5969, 0.05307833132, 0.04750721645, 0.006556692404
5970, 0.05320457479, 0.04767174013, 0.006556692404
5971, 0.05332203473, 0.04784264542, 0.006556692404
5972, 0.05343038922, 0.04801946386, 0.006556692404
5973, 0.05352934124, 0.04820171082, 0.006556692404
5974, 0.05361861958, 0.04838888676, 0.006556692404
5975, 0.05369797954, 0.04858047865, 0.006556692404
5976, 0.0537672036, 0.04877596135, 0.006556692404
5977, 0.05382610201, 0.04897479906, 0.006556692404
5978, 0.05387451334, 0.04917644677, 0.006556692404
5979, 0.0539123049, 0.04938035178, 0.006556692404
5980, 0.05393937311, 0.0495859552, 0.006556692404
5981, 0.05395564376, 0.04979269349, 0.006556692404
5982, 0.05393923101, 0.05, 0.006694592711
5983, 0.05393383243, 0.05020616342, 0.006694592711
5984, 0.05391765149, 0.05041176176, 0.006694592711
5985, 0.05389073254, 0.0506162315, 0.006694592711
5986, 0.05385314936, 0.05081901218, 0.006694592711
5987, 0.05380500497, 0.05101954801, 0.006694592711
5988, 0.05374643132, 0.05121728933, 0.006694592711
5989, 0.05367758897, 0.05141169414, 0.006694592711
5990, 0.0535986666, 0.0516022296, 0.006694592711
5991, 0.05350988053, 0.05178837346, 0.006694592711
5992, 0.05341147413, 0.05196961551, 0.006694592711
5993, 0.05330371711, 0.05214545898, 0.006694592711
5994, 0.05318690483, 0.05231542189, 0.006694592711
5995, 0.05306135747, 0.0524790384, 0.006694592711
5996, 0.05292741914, 0.05263586004, 0.006694592711
5997, 0.05278545696, 0.05278545696, 0.006694592711
5998, 0.05263586004, 0.05292741914, 0.006694592711
5999, 0.0524790384, 0.05306135747, 0.006694592711
6000, 0.05231542189, 0.05318690483, 0.006694592711
6001, 0.05214545898, 0.05330371711, 0.006694592711
6002, 0.05196961551, 0.05341147413, 0.006694592711
6003, 0.05178837346, 0.05350988053, 0.006694592711
6004, 0.0516022296, 0.0535986666, 0.006694592711
6005, 0.05141169414, 0.05367758897, 0.006694592711
6006, 0.05121728933, 0.05374643132, 0.006694592711
6007, 0.05101954801, 0.05380500497, 0.006694592711
6008, 0.05081901218, 0.05385314936, 0.006694592711
6009, 0.0506162315, 0.05389073254, 0.006694592711
6010, 0.05041176176, 0.05391765149, 0.006694592711
6011, 0.05020616342, 0.05393383243, 0.006694592711
6012, 0.05, 0.05393923101, 0.006694592711
6013, 0.04979383658, 0.05393383243, 0.006694592711
6014, 0.04958823824, 0.05391765149, 0.006694592711
6015, 0.0493837685, 0.05389073254, 0.006694592711
6016, 0.04918098782, 0.05385314936, 0.006694592711
6017, 0.04898045199, 0.05380500497, 0.006694592711
6018, 0.04878271067, 0.05374643132, 0.006694592711
6019, 0.04858830586, 0.05367758897, 0.006694592711
6020, 0.0483977704, 0.0535986666, 0.006694592711
6021, 0.04821162654, 0.05350988053, 0.006694592711
6022, 0.04803038449, 0.05341147413, 0.006694592711
6023, 0.04785454102, 0.05330371711, 0.006694592711
6024, 0.04768457811, 0.05318690483, 0.006694592711
6025, 0.0475209616, 0.05306135747, 0.006694592711
6026, 0.04736413996, 0.05292741914, 0.006694592711
6027, 0.04721454304, 0.05278545696, 0.006694592711
6028, 0.04707258086, 0.05263586004, 0.006694592711
6029, 0.04693864253, 0.0524790384, 0.006694592711
6030, 0.04681309517, 0.05231542189, 0.006694592711
6031, 0.04669628289, 0.05214545898, 0.006694592711
6032, 0.04658852587, 0.05196961551, 0.006694592711
6033, 0.04649011947, 0.05178837346, 0.006694592711
6034, 0.0464013334, 0.0516022296, 0.006694592711
6035, 0.04632241103, 0.05141169414, 0.006694592711
6036, 0.04625356868, 0.05121728933, 0.006694592711
6037, 0.04619499503, 0.05101954801, 0.006694592711
6038, 0.04614685064, 0.05081901218, 0.006694592711
6039, 0.04610926746, 0.0506162315, 0.006694592711
6040, 0.04608234851, 0.05041176176, 0.006694592711
6041, 0.04606616757, 0.05020616342, 0.006694592711
6042, 0.04606076899, 0.05, 0.006694592711
6043, 0.04606616757, 0.04979383658, 0.006694592711
6044, 0.04608234851, 0.04958823824, 0.006694592711
6045, 0.04610926746, 0.0493837685, 0.006694592711
6046, 0.04614685064, 0.04918098782, 0.006694592711
6047, 0.04619499503, 0.04898045199, 0.006694592711
6048, 0.04625356868, 0.04878271067, 0.006694592711
6049, 0.04632241103, 0.04858830586, 0.006694592711
6050, 0.0464013334, 0.0483977704, 0.006694592711
6051, 0.04649011947, 0.04821162654, 0.006694592711
6052, 0.04658852587, 0.04803038449, 0.006694592711
6053, 0.04669628289, 0.04785454102, 0.006694592711
6054, 0.04681309517, 0.04768457811, 0.006694592711
6055, 0.04693864253, 0.0475209616, 0.006694592711
6056, 0.04707258086, 0.04736413996, 0.006694592711
6057, 0.04721454304, 0.04721454304, 0.006694592711
6058, 0.04736413996, 0.04707258086, 0.006694592711
6059, 0.0475209616, 0.04693864253, 0.006694592711
6060, 0.04768457811, 0.04681309517, 0.006694592711
6061, 0.04785454102, 0.04669628289, 0.006694592711
6062, 0.04803038449, 0.04658852587, 0.006694592711
6063, 0.04821162654, 0.04649011947, 0.006694592711
6064, 0.0483977704, 0.0464013334, 0.006694592711
6065, 0.04858830586, 0.04632241103, 0.006694592711
6066, 0.04878271067, 0.04625356868, 0.006694592711
6067, 0.04898045199, 0.04619499503, 0.006694592711
6068, 0.04918098782, 0.04614685064, 0.006694592711
6069, 0.0493837685, 0.04610926746, 0.006694592711
6070, 0.04958823824, 0.04608234851, 0.006694592711
6071, 0.04979383658, 0.04606616757, 0.006694592711
6072, 0.05, 0.04606076899, 0.006694592711
6073, 0.05020616342, 0.04606616757, 0.006694592711
6074, 0.05041176176, 0.04608234851, 0.006694592711
6075, 0.0506162315, 0.04610926746, 0.006694592711
6076, 0.05081901218, 0.04614685064, 0.006694592711
6077, 0.05101954801, 0.04619499503, 0.006694592711
6078, 0.05121728933, 0.04625356868, 0.006694592711
6079, 0.05141169414, 0.04632241103, 0.006694592711
6080, 0.0516022296, 0.0464013334, 0.006694592711
6081, 0.05178837346, 0.04649011947, 0.006694592711
6082, 0.05196961551, 0.04658852587, 0.006694592711
6083, 0.05214545898, 0.04669628289, 0.006694592711
6084, 0.05231542189, 0.04681309517, 0.006694592711
6085, 0.0524790384, 0.04693864253, 0.006694592711
6086, 0.05263586004, 0.04707258086, 0.006694592711
6087, 0.05278545696, 0.04721454304, 0.006694592711
6088, 0.05292741914, 0.04736413996, 0.006694592711
6089, 0.05306135747, 0.0475209616, 0.006694592711
6090, 0.05318690483, 0.04768457811, 0.006694592711
6091, 0.05330371711, 0.04785454102, 0.006694592711
6092, 0.05341147413, 0.04803038449, 0.006694592711
6093, 0.05350988053, 0.04821162654, 0.006694592711
6094, 0.0535986666, 0.0483977704, 0.006694592711
6095, 0.05367758897, 0.04858830586, 0.006694592711
6096, 0.05374643132, 0.04878271067, 0.006694592711
6097, 0.05380500497, 0.04898045199, 0.006694592711
6098, 0.05385314936, 0.04918098782, 0.006694592711
6099, 0.05389073254, 0.0493837685, 0.006694592711
6100, 0.05391765149, 0.04958823824, 0.006694592711
6101, 0.05393383243, 0.04979383658, 0.006694592711
6102, 0.0539125904, 0.05, 0.006831646763
6103, 0.05390722833, 0.05020476916, 0.006831646763
6104, 0.05389115682, 0.05040897706, 0.006831646763
6105, 0.05386441992, 0.05061206399, 0.006831646763
6106, 0.05382709092, 0.05081347329, 0.006831646763
6107, 0.05377927212, 0.05101265291, 0.006831646763
6108, 0.0537210946, 0.05120905693, 0.006831646763
6109, 0.05365271782, 0.051402147, 0.006831646763
6110, 0.05357432919, 0.05159139389, 0.006831646763
6111, 0.05348614358, 0.05177627887, 0.006831646763
6112, 0.05338840268, 0.0519562952, 0.006831646763
6113, 0.05328137442, 0.05213094946, 0.006831646763
6114, 0.05316535213, 0.05229976294, 0.006831646763
6115, 0.05304065383, 0.05246227292, 0.006831646763
6116, 0.05290762131, 0.05261803399, 0.006831646763
6117, 0.05276661921, 0.05276661921, 0.006831646763
6118, 0.05261803399, 0.05290762131, 0.006831646763
6119, 0.05246227292, 0.05304065383, 0.006831646763
6120, 0.05229976294, 0.05316535213, 0.006831646763
6121, 0.05213094946, 0.05328137442, 0.006831646763
6122, 0.0519562952, 0.05338840268, 0.006831646763
6123, 0.05177627887, 0.05348614358, 0.006831646763
6124, 0.05159139389, 0.05357432919, 0.006831646763
6125, 0.051402147, 0.05365271782, 0.006831646763
6126, 0.05120905693, 0.0537210946, 0.006831646763
6127, 0.05101265291, 0.05377927212, 0.006831646763
6128, 0.05081347329, 0.05382709092, 0.006831646763
6129, 0.05061206399, 0.05386441992, 0.006831646763
6130, 0.05040897706, 0.05389115682, 0.006831646763
6131, 0.05020476916, 0.05390722833, 0.006831646763
6132, 0.05, 0.0539125904, 0.006831646763
6133, 0.04979523084, 0.05390722833, 0.006831646763
6134, 0.04959102294, 0.05389115682, 0.006831646763
6135, 0.04938793601, 0.05386441992, 0.006831646763
6136, 0.04918652671, 0.05382709092, 0.006831646763
6137, 0.04898734709, 0.05377927212, 0.006831646763
6138, 0.04879094307, 0.0537210946, 0.006831646763
6139, 0.048597853, 0.05365271782, 0.006831646763
6140, 0.04840860611, 0.05357432919, 0.006831646763
6141, 0.04822372113, 0.05348614358, 0.006831646763
6142, 0.0480437048, 0.05338840268, 0.006831646763
6143, 0.04786905054, 0.05328137442, 0.006831646763
6144, 0.04770023706, 0.05316535213, 0.006831646763
6145, 0.04753772708, 0.05304065383, 0.006831646763
6146, 0.04738196601, 0.05290762131, 0.006831646763
6147, 0.04723338079, 0.05276661921, 0.006831646763
6148, 0.04709237869, 0.05261803399, 0.006831646763
6149, 0.04695934617, 0.05246227292, 0.006831646763
6150, 0.04683464787, 0.05229976294, 0.006831646763
6151, 0.04671862558, 0.05213094946, 0.006831646763
6152, 0.04661159732, 0.0519562952, 0.006831646763
6153, 0.04651385642, 0.05177627887, 0.006831646763
6154, 0.04642567081, 0.05159139389, 0.006831646763
6155, 0.04634728218, 0.051402147, 0.006831646763
6156, 0.0462789054, 0.05120905693, 0.006831646763
6157, 0.04622072788, 0.05101265291, 0.006831646763
6158, 0.04617290908, 0.05081347329, 0.006831646763
6159, 0.04613558008, 0.05061206399, 0.006831646763
6160, 0.04610884318, 0.05040897706, 0.006831646763
6161, 0.04609277167, 0.05020476916, 0.006831646763
6162, 0.0460874096, 0.05, 0.006831646763
6163, 0.04609277167, 0.04979523084, 0.006831646763
6164, 0.04610884318, 0.04959102294, 0.006831646763
6165, 0.04613558008, 0.04938793601, 0.006831646763
6166, 0.04617290908, 0.04918652671, 0.006831646763
6167, 0.04622072788, 0.04898734709, 0.006831646763
6168, 0.0462789054, 0.04879094307, 0.006831646763
6169, 0.04634728218, 0.048597853, 0.006831646763
6170, 0.04642567081, 0.04840860611, 0.006831646763
6171, 0.04651385642, 0.04822372113, 0.006831646763
6172, 0.04661159732, 0.0480437048, 0.006831646763
6173, 0.04671862558, 0.04786905054, 0.006831646763
6174, 0.04683464787, 0.04770023706, 0.006831646763
6175, 0.04695934617, 0.04753772708, 0.006831646763
6176, 0.04709237869, 0.04738196601, 0.006831646763
6177, 0.04723338079, 0.04723338079, 0.006831646763
6178, 0.04738196601, 0.04709237869, 0.006831646763
6179, 0.04753772708, 0.04695934617, 0.006831646763
6180, 0.04770023706, 0.04683464787, 0.006831646763
6181, 0.04786905054, 0.04671862558, 0.006831646763
6182, 0.0480437048, 0.04661159732, 0.006831646763
6183, 0.04822372113, 0.04651385642, 0.006831646763
6184, 0.04840860611, 0.04642567081, 0.006831646763
6185, 0.048597853, 0.04634728218, 0.006831646763
6186, 0.04879094307, 0.0462789054, 0.006831646763
6187, 0.04898734709, 0.04622072788, 0.006831646763
6188, 0.04918652671, 0.04617290908, 0.006831646763
6189, 0.04938793601, 0.04613558008, 0.006831646763
6190, 0.04959102294, 0.04610884318, 0.006831646763
6191, 0.04979523084, 0.04609277167, 0.006831646763
6192, 0.05, 0.0460874096, 0.006831646763
6193, 0.05020476916, 0.04609277167, 0.006831646763
6194, 0.05040897706, 0.04610884318, 0.006831646763
6195, 0.05061206399, 0.04613558008, 0.006831646763
6196, 0.05081347329, 0.04617290908, 0.006831646763
6197, 0.05101265291, 0.04622072788, 0.006831646763
6198, 0.05120905693, 0.0462789054, 0.006831646763
6199, 0.051402147, 0.04634728218, 0.006831646763
6200, 0.05159139389, 0.04642567081, 0.006831646763
6201, 0.05177627887, 0.04651385642, 0.006831646763
6202, 0.0519562952, 0.04661159732, 0.006831646763
6203, 0.05213094946, 0.04671862558, 0.006831646763
6204, 0.05229976294, 0.04683464787, 0.006831646763
6205, 0.05246227292, 0.04695934617, 0.006831646763
6206, 0.05261803399, 0.04709237869, 0.006831646763
6207, 0.05276661921, 0.04723338079, 0.006831646763
6208, 0.05290762131, 0.04738196601, 0.006831646763
6209, 0.05304065383, 0.04753772708, 0.006831646763
6210, 0.05316535213, 0.04770023706, 0.006831646763
6211, 0.05328137442, 0.04786905054, 0.006831646763
6212, 0.05338840268, 0.0480437048, 0.006831646763
6213, 0.05348614358, 0.04822372113, 0.006831646763
6214, 0.05357432919, 0.04840860611, 0.006831646763
6215, 0.05365271782, 0.048597853, 0.006831646763
6216, 0.0537210946, 0.04879094307, 0.006831646763
6217, 0.05377927212, 0.04898734709, 0.006831646763
6218, 0.05382709092, 0.04918652671, 0.006831646763
6219, 0.05386441992, 0.04938793601, 0.006831646763
6220, 0.05389115682, 0.04959102294, 0.006831646763
6221, 0.05390722833, 0.04979523084, 0.006831646763
6222, 0.05388118291, 0.05, 0.006967687582
6223, 0.05387586388, 0.05020312542, 0.006967687582
6224, 0.05385992138, 0.05040569408, 0.006967687582
6225, 0.0538333991, 0.05060715077, 0.006967687582
6226, 0.05379636975, 0.0508069433, 0.006967687582
6227, 0.0537489348, 0.05100452405, 0.006967687582
6228, 0.05369122429, 0.05119935148, 0.006967687582
6229, 0.05362339639, 0.05139089156, 0.006967687582
6230, 0.05354563701, 0.05157861931, 0.006967687582
6231, 0.05345815929, 0.05176202017, 0.006967687582
6232, 0.05336120299, 0.05194059145, 0.006967687582
6233, 0.05325503387, 0.05211384371, 0.006967687582
6234, 0.05313994293, 0.05228130207, 0.006967687582
6235, 0.05301624562, 0.05244250754, 0.006967687582
6236, 0.05288428099, 0.05259701827, 0.006967687582
6237, 0.05274441075, 0.05274441075, 0.006967687582
6238, 0.05259701827, 0.05288428099, 0.006967687582
6239, 0.05244250754, 0.05301624562, 0.006967687582
6240, 0.05228130207, 0.05313994293, 0.006967687582
6241, 0.05211384371, 0.05325503387, 0.006967687582
6242, 0.05194059145, 0.05336120299, 0.006967687582
6243, 0.05176202017, 0.05345815929, 0.006967687582
6244, 0.05157861931, 0.05354563701, 0.006967687582
6245, 0.05139089156, 0.05362339639, 0.006967687582
6246, 0.05119935148, 0.05369122429, 0.006967687582
6247, 0.05100452405, 0.0537489348, 0.006967687582
6248, 0.0508069433, 0.05379636975, 0.006967687582
6249, 0.05060715077, 0.0538333991, 0.006967687582
6250, 0.05040569408, 0.05385992138, 0.006967687582
6251, 0.05020312542, 0.05387586388, 0.006967687582
6252, 0.05, 0.05388118291, 0.006967687582
6253, 0.04979687458, 0.05387586388, 0.006967687582
6254, 0.04959430592, 0.05385992138, 0.006967687582
6255, 0.04939284923, 0.0538333991, 0.006967687582
6256, 0.0491930567, 0.05379636975, 0.006967687582
6257, 0.04899547595, 0.0537489348, 0.006967687582
6258, 0.04880064852, 0.05369122429, 0.006967687582
6259, 0.04860910844, 0.05362339639, 0.006967687582
6260, 0.04842138069, 0.05354563701, 0.006967687582
6261, 0.04823797983, 0.05345815929, 0.006967687582
6262, 0.04805940855, 0.05336120299, 0.006967687582
6263, 0.04788615629, 0.05325503387, 0.006967687582
6264, 0.04771869793, 0.05313994293, 0.006967687582
6265, 0.04755749246, 0.05301624562, 0.006967687582
6266, 0.04740298173, 0.05288428099, 0.006967687582
6267, 0.04725558925, 0.05274441075, 0.006967687582
6268, 0.04711571901, 0.05259701827, 0.006967687582
6269, 0.04698375438, 0.05244250754, 0.006967687582
6270, 0.04686005707, 0.05228130207, 0.006967687582
6271, 0.04674496613, 0.05211384371, 0.006967687582
6272, 0.04663879701, 0.05194059145, 0.006967687582
6273, 0.04654184071, 0.05176202017, 0.006967687582
6274, 0.04645436299, 0.05157861931, 0.006967687582
6275, 0.04637660361, 0.05139089156, 0.006967687582
6276, 0.04630877571, 0.05119935148, 0.006967687582
6277, 0.0462510652, 0.05100452405, 0.006967687582
6278, 0.04620363025, 0.0508069433, 0.006967687582
6279, 0.0461666009, 0.05060715077, 0.006967687582
6280, 0.04614007862, 0.05040569408, 0.006967687582
6281, 0.04612413612, 0.05020312542, 0.006967687582
6282, 0.04611881709, 0.05, 0.006967687582
6283, 0.04612413612, 0.04979687458, 0.006967687582
6284, 0.04614007862, 0.04959430592, 0.006967687582
6285, 0.0461666009, 0.04939284923, 0.006967687582
6286, 0.04620363025, 0.0491930567, 0.006967687582
6287, 0.0462510652, 0.04899547595, 0.006967687582
6288, 0.04630877571, 0.04880064852, 0.006967687582
6289, 0.04637660361, 0.04860910844, 0.006967687582
6290, 0.04645436299, 0.04842138069, 0.006967687582
6291, 0.04654184071, 0.04823797983, 0.006967687582
6292, 0.04663879701, 0.04805940855, 0.006967687582
6293, 0.04674496613, 0.04788615629, 0.006967687582
6294, 0.04686005707, 0.04771869793, 0.006967687582
6295, 0.04698375438, 0.04755749246, 0.006967687582
6296, 0.04711571901, 0.04740298173, 0.006967687582
6297, 0.04725558925, 0.04725558925, 0.006967687582
6298, 0.04740298173, 0.04711571901, 0.006967687582
6299, 0.04755749246, 0.04698375438, 0.006967687582
6300, 0.04771869793, 0.04686005707, 0.006967687582
6301, 0.04788615629, 0.04674496613, 0.006967687582
6302, 0.04805940855, 0.04663879701, 0.006967687582
6303, 0.04823797983, 0.04654184071, 0.006967687582
6304, 0.04842138069, 0.04645436299, 0.006967687582
6305, 0.04860910844, 0.04637660361, 0.006967687582
6306, 0.04880064852, 0.04630877571, 0.006967687582
6307, 0.04899547595, 0.0462510652, 0.006967687582
6308, 0.0491930567, 0.04620363025, 0.006967687582
6309, 0.04939284923, 0.0461666009, 0.006967687582
6310, 0.04959430592, 0.04614007862, 0.006967687582
6311, 0.04979687458, 0.04612413612, 0.006967687582
6312, 0.05, 0.04611881709, 0.006967687582
6313, 0.05020312542, 0.04612413612, 0.006967687582
6314, 0.05040569408, 0.04614007862, 0.006967687582
6315, 0.05060715077, 0.0461666009, 0.006967687582
6316, 0.0508069433, 0.04620363025, 0.006967687582
6317, 0.05100452405, 0.0462510652, 0.006967687582
6318, 0.05119935148, 0.04630877571, 0.006967687582
6319, 0.05139089156, 0.04637660361, 0.006967687582
6320, 0.05157861931, 0.04645436299, 0.006967687582
6321, 0.05176202017, 0.04654184071, 0.006967687582
6322, 0.05194059145, 0.04663879701, 0.006967687582
6323, 0.05211384371, 0.04674496613, 0.006967687582
6324, 0.05228130207, 0.04686005707, 0.006967687582
6325, 0.05244250754, 0.04698375438, 0.006967687582
6326, 0.05259701827, 0.04711571901, 0.006967687582
6327, 0.05274441075, 0.04725558925, 0.006967687582
6328, 0.05288428099, 0.04740298173, 0.006967687582
6329, 0.05301624562, 0.04755749246, 0.006967687582
6330, 0.05313994293, 0.04771869793, 0.006967687582
6331, 0.05325503387, 0.04788615629, 0.006967687582
6332, 0.05336120299, 0.04805940855, 0.006967687582
6333, 0.05345815929, 0.04823797983, 0.006967687582
6334, 0.05354563701, 0.04842138069, 0.006967687582
6335, 0.05362339639, 0.04860910844, 0.006967687582
6336, 0.05369122429, 0.04880064852, 0.006967687582
6337, 0.0537489348, 0.04899547595, 0.006967687582
6338, 0.05379636975, 0.0491930567, 0.006967687582
6339, 0.0538333991, 0.04939284923, 0.006967687582
6340, 0.05385992138, 0.04959430592, 0.006967687582
6341, 0.05387586388, 0.04979687458, 0.006967687582
6342, 0.05384504678, 0.05, 0.007102549423
6343, 0.05383977728, 0.0502012342, 0.007102549423
6344, 0.05382398322, 0.05040191683, 0.007102549423
6345, 0.05379770788, 0.05060149784, 0.007102549423
6346, 0.05376102329, 0.05079943018, 0.007102549423
6347, 0.05371402999, 0.05099517134, 0.007102549423
6348, 0.0536568568, 0.0511881848, 0.007102549423
6349, 0.05358966042, 0.05137794153, 0.007102549423
6350, 0.05351262502, 0.05156392142, 0.007102549423
6351, 0.05342596177, 0.05174561471, 0.007102549423
6352, 0.05332990819, 0.05192252339, 0.007102549423
6353, 0.05322472757, 0.05209416257, 0.007102549423
6354, 0.05311070819, 0.05226006179, 0.007102549423
6355, 0.05298816258, 0.05241976635, 0.007102549423
6356, 0.05285742662, 0.05257283849, 0.007102549423
6357, 0.05271885865, 0.05271885865, 0.007102549423
6358, 0.05257283849, 0.05285742662, 0.007102549423
6359, 0.05241976635, 0.05298816258, 0.007102549423
6360, 0.05226006179, 0.05311070819, 0.007102549423
6361, 0.05209416257, 0.05322472757, 0.007102549423
6362, 0.05192252339, 0.05332990819, 0.007102549423
6363, 0.05174561471, 0.05342596177, 0.007102549423
6364, 0.05156392142, 0.05351262502, 0.007102549423
6365, 0.05137794153, 0.05358966042, 0.007102549423
6366, 0.0511881848, 0.0536568568, 0.007102549423
6367, 0.05099517134, 0.05371402999, 0.007102549423
6368, 0.05079943018, 0.05376102329, 0.007102549423
6369, 0.05060149784, 0.05379770788, 0.007102549423
6370, 0.05040191683, 0.05382398322, 0.007102549423
6371, 0.0502012342, 0.05383977728, 0.007102549423
6372, 0.05, 0.05384504678, 0.007102549423
6373, 0.0497987658, 0.05383977728, 0.007102549423
6374, 0.04959808317, 0.05382398322, 0.007102549423
6375, 0.04939850216, 0.05379770788, 0.007102549423
6376, 0.04920056982, 0.05376102329, 0.007102549423
6377, 0.04900482866, 0.05371402999, 0.007102549423
6378, 0.0488118152, 0.0536568568, 0.007102549423
6379, 0.04862205847, 0.05358966042, 0.007102549423
6380, 0.04843607858, 0.05351262502, 0.007102549423
6381, 0.04825438529, 0.05342596177, 0.007102549423
6382, 0.04807747661, 0.05332990819, 0.007102549423
6383, 0.04790583743, 0.05322472757, 0.007102549423
6384, 0.04773993821, 0.05311070819, 0.007102549423
6385, 0.04758023365, 0.05298816258, 0.007102549423
6386, 0.04742716151, 0.05285742662, 0.007102549423
6387, 0.04728114135, 0.05271885865, 0.007102549423
6388, 0.04714257338, 0.05257283849, 0.007102549423
6389, 0.04701183742, 0.05241976635, 0.007102549423
6390, 0.04688929181, 0.05226006179, 0.007102549423
6391, 0.04677527243, 0.05209416257, 0.007102549423
6392, 0.04667009181, 0.05192252339, 0.007102549423
6393, 0.04657403823, 0.05174561471, 0.007102549423
6394, 0.04648737498, 0.05156392142, 0.007102549423
6395, 0.04641033958, 0.05137794153, 0.007102549423
6396, 0.0463431432, 0.0511881848, 0.007102549423
6397, 0.04628597001, 0.05099517134, 0.007102549423
6398, 0.04623897671, 0.05079943018, 0.007102549423
6399, 0.04620229212, 0.05060149784, 0.007102549423
6400, 0.04617601678, 0.05040191683, 0.007102549423
6401, 0.04616022272, 0.0502012342, 0.007102549423
6402, 0.04615495322, 0.05, 0.007102549423
6403, 0.04616022272, 0.0497987658, 0.007102549423
6404, 0.04617601678, 0.04959808317, 0.007102549423
6405, 0.04620229212, 0.04939850216, 0.007102549423
6406, 0.04623897671, 0.04920056982, 0.007102549423
6407, 0.04628597001, 0.04900482866, 0.007102549423
6408, 0.0463431432, 0.0488118152, 0.007102549423
6409, 0.04641033958, 0.04862205847, 0.007102549423
6410, 0.04648737498, 0.04843607858, 0.007102549423
6411, 0.04657403823, 0.04825438529, 0.007102549423
6412, 0.04667009181, 0.04807747661, 0.007102549423
6413, 0.04677527243, 0.04790583743, 0.007102549423
6414, 0.04688929181, 0.04773993821, 0.007102549423
6415, 0.04701183742, 0.04758023365, 0.007102549423
6416, 0.04714257338, 0.04742716151, 0.007102549423
6417, 0.04728114135, 0.04728114135, 0.007102549423
6418, 0.04742716151, 0.04714257338, 0.007102549423
6419, 0.04758023365, 0.04701183742, 0.007102549423
6420, 0.04773993821, 0.04688929181, 0.007102549423
6421, 0.04790583743, 0.04677527243, 0.007102549423
6422, 0.04807747661, 0.04667009181, 0.007102549423
6423, 0.04825438529, 0.04657403823, 0.007102549423
6424, 0.04843607858, 0.04648737498, 0.007102549423
6425, 0.04862205847, 0.04641033958, 0.007102549423
6426, 0.0488118152, 0.0463431432, 0.007102549423
6427, 0.04900482866, 0.04628597001, 0.007102549423
6428, 0.04920056982, 0.04623897671, 0.007102549423
6429, 0.04939850216, 0.04620229212, 0.007102549423
6430, 0.04959808317, 0.04617601678, 0.007102549423
6431, 0.0497987658, 0.04616022272, 0.007102549423
6432, 0.05, 0.04615495322, 0.007102549423
6433, 0.0502012342, 0.04616022272, 0.007102549423
6434, 0.05040191683, 0.04617601678, 0.007102549423
6435, 0.05060149784, 0.04620229212, 0.007102549423
6436, 0.05079943018, 0.04623897671, 0.007102549423
6437, 0.05099517134, 0.04628597001, 0.007102549423
6438, 0.0511881848, 0.0463431432, 0.007102549423
6439, 0.05137794153, 0.04641033958, 0.007102549423
6440, 0.05156392142, 0.04648737498, 0.007102549423
6441, 0.05174561471, 0.04657403823, 0.007102549423
6442, 0.05192252339, 0.04667009181, 0.007102549423
6443, 0.05209416257, 0.04677527243, 0.007102549423
6444, 0.05226006179, 0.04688929181, 0.007102549423
6445, 0.05241976635, 0.04701183742, 0.007102549423
6446, 0.05257283849, 0.04714257338, 0.007102549423
6447, 0.05271885865, 0.04728114135, 0.007102549423
6448, 0.05285742662, 0.04742716151, 0.007102549423
6449, 0.05298816258, 0.04758023365, 0.007102549423
6450, 0.05311070819, 0.04773993821, 0.007102549423
6451, 0.05322472757, 0.04790583743, 0.007102549423
6452, 0.05332990819, 0.04807747661, 0.007102549423
6453, 0.05342596177, 0.04825438529, 0.007102549423
6454, 0.05351262502, 0.04843607858, 0.007102549423
6455, 0.05358966042, 0.04862205847, 0.007102549423
6456, 0.0536568568, 0.0488118152, 0.007102549423
6457, 0.05371402999, 0.04900482866, 0.007102549423
6458, 0.05376102329, 0.04920056982, 0.007102549423
6459, 0.05379770788, 0.04939850216, 0.007102549423
6460, 0.05382398322, 0.04959808317, 0.007102549423
6461, 0.05383977728, 0.0497987658, 0.007102549423
6462, 0.05380422607, 0.05, 0.007236067977
6463, 0.05379901251, 0.05019909781, 0.007236067977
6464, 0.05378338612, 0.0503976499, 0.007236067977
6465, 0.05375738973, 0.05059511207, 0.007236067977
6466, 0.0537210946, 0.05079094307, 0.007236067977
6467, 0.05367460021, 0.05098460616, 0.007236067977
6468, 0.05361803399, 0.0511755705, 0.007236067977
6469, 0.05355155099, 0.05136331269, 0.007236067977
6470, 0.05347533344, 0.05154731814, 0.007236067977
6471, 0.05338959024, 0.05172708249, 0.007236067977
6472, 0.05329455641, 0.05190211303, 0.007236067977
6473, 0.05319049243, 0.05207193001, 0.007236067977
6474, 0.05307768354, 0.05223606798, 0.007236067977
6475, 0.05295643892, 0.05239407703, 0.007236067977
6476, 0.05282709092, 0.05254552409, 0.007236067977
6477, 0.05268999405, 0.05268999405, 0.007236067977
6478, 0.05254552409, 0.05282709092, 0.007236067977
6479, 0.05239407703, 0.05295643892, 0.007236067977
6480, 0.05223606798, 0.05307768354, 0.007236067977
6481, 0.05207193001, 0.05319049243, 0.007236067977
6482, 0.05190211303, 0.05329455641, 0.007236067977
6483, 0.05172708249, 0.05338959024, 0.007236067977
6484, 0.05154731814, 0.05347533344, 0.007236067977
6485, 0.05136331269, 0.05355155099, 0.007236067977
6486, 0.0511755705, 0.05361803399, 0.007236067977
6487, 0.05098460616, 0.05367460021, 0.007236067977
6488, 0.05079094307, 0.0537210946, 0.007236067977
6489, 0.05059511207, 0.05375738973, 0.007236067977
6490, 0.0503976499, 0.05378338612, 0.007236067977
6491, 0.05019909781, 0.05379901251, 0.007236067977
6492, 0.05, 0.05380422607, 0.007236067977
6493, 0.04980090219, 0.05379901251, 0.007236067977
6494, 0.0496023501, 0.05378338612, 0.007236067977
6495, 0.04940488793, 0.05375738973, 0.007236067977
6496, 0.04920905693, 0.0537210946, 0.007236067977
6497, 0.04901539384, 0.05367460021, 0.007236067977
6498, 0.0488244295, 0.05361803399, 0.007236067977
6499, 0.04863668731, 0.05355155099, 0.007236067977
6500, 0.04845268186, 0.05347533344, 0.007236067977
6501, 0.04827291751, 0.05338959024, 0.007236067977
6502, 0.04809788697, 0.05329455641, 0.007236067977
6503, 0.04792806999, 0.05319049243, 0.007236067977
6504, 0.04776393202, 0.05307768354, 0.007236067977
6505, 0.04760592297, 0.05295643892, 0.007236067977
6506, 0.04745447591, 0.05282709092, 0.007236067977
6507, 0.04731000595, 0.05268999405, 0.007236067977
6508, 0.04717290908, 0.05254552409, 0.007236067977
6509, 0.04704356108, 0.05239407703, 0.007236067977
6510, 0.04692231646, 0.05223606798, 0.007236067977
6511, 0.04680950757, 0.05207193001, 0.007236067977
6512, 0.04670544359, 0.05190211303, 0.007236067977
6513, 0.04661040976, 0.05172708249, 0.007236067977
6514, 0.04652466656, 0.05154731814, 0.007236067977
6515, 0.04644844901, 0.05136331269, 0.007236067977
6516, 0.04638196601, 0.0511755705, 0.007236067977
6517, 0.04632539979, 0.05098460616, 0.007236067977
6518, 0.0462789054, 0.05079094307, 0.007236067977
6519, 0.04624261027, 0.05059511207, 0.007236067977
6520, 0.04621661388, 0.0503976499, 0.007236067977
6521, 0.04620098749, 0.05019909781, 0.007236067977
6522, 0.04619577393, 0.05, 0.007236067977
6523, 0.04620098749, 0.04980090219, 0.007236067977
6524, 0.04621661388, 0.0496023501, 0.007236067977
6525, 0.04624261027, 0.04940488793, 0.007236067977
6526, 0.0462789054, 0.04920905693, 0.007236067977
6527, 0.04632539979, 0.04901539384, 0.007236067977
6528, 0.04638196601, 0.0488244295, 0.007236067977
6529, 0.04644844901, 0.04863668731, 0.007236067977
6530, 0.04652466656, 0.04845268186, 0.007236067977
6531, 0.04661040976, 0.04827291751, 0.007236067977
6532, 0.04670544359, 0.04809788697, 0.007236067977
6533, 0.04680950757, 0.04792806999, 0.007236067977
6534, 0.04692231646, 0.04776393202, 0.007236067977
6535, 0.04704356108, 0.04760592297, 0.007236067977
6536, 0.04717290908, 0.04745447591, 0.007236067977
6537, 0.04731000595, 0.04731000595, 0.007236067977
6538, 0.04745447591, 0.04717290908, 0.007236067977
6539, 0.04760592297, 0.04704356108, 0.007236067977
6540, 0.04776393202, 0.04692231646, 0.007236067977
6541, 0.04792806999, 0.04680950757, 0.007236067977
6542, 0.04809788697, 0.04670544359, 0.007236067977
6543, 0.04827291751, 0.04661040976, 0.007236067977
6544, 0.04845268186, 0.04652466656, 0.007236067977
6545, 0.04863668731, 0.04644844901, 0.007236067977
6546, 0.0488244295, 0.04638196601, 0.007236067977
6547, 0.04901539384, 0.04632539979, 0.007236067977
6548, 0.04920905693, 0.0462789054, 0.007236067977
6549, 0.04940488793, 0.04624261027, 0.007236067977
6550, 0.0496023501, 0.04621661388, 0.007236067977
6551, 0.04980090219, 0.04620098749, 0.007236067977
6552, 0.05, 0.04619577393, 0.007236067977
6553, 0.05019909781, 0.04620098749, 0.007236067977
6554, 0.0503976499, 0.04621661388, 0.007236067977
6555, 0.05059511207, 0.04624261027, 0.007236067977
6556, 0.05079094307, 0.0462789054, 0.007236067977
6557, 0.05098460616, 0.04632539979, 0.007236067977
6558, 0.0511755705, 0.04638196601, 0.007236067977
6559, 0.05136331269, 0.04644844901, 0.007236067977
6560, 0.05154731814, 0.04652466656, 0.007236067977
6561, 0.05172708249, 0.04661040976, 0.007236067977
6562, 0.05190211303, 0.04670544359, 0.007236067977
6563, 0.05207193001, 0.04680950757, 0.007236067977
6564, 0.05223606798, 0.04692231646, 0.007236067977
6565, 0.05239407703, 0.04704356108, 0.007236067977
6566, 0.05254552409, 0.04717290908, 0.007236067977
6567, 0.05268999405, 0.04731000595, 0.007236067977
6568, 0.05282709092, 0.04745447591, 0.007236067977
6569, 0.05295643892, 0.04760592297, 0.007236067977
6570, 0.05307768354, 0.04776393202, 0.007236067977
6571, 0.05319049243, 0.04792806999, 0.007236067977
6572, 0.05329455641, 0.04809788697, 0.007236067977
6573, 0.05338959024, 0.04827291751, 0.007236067977
6574, 0.05347533344, 0.04845268186, 0.007236067977
6575, 0.05355155099, 0.04863668731, 0.007236067977
6576, 0.05361803399, 0.0488244295, 0.007236067977
6577, 0.05367460021, 0.04901539384, 0.007236067977
6578, 0.0537210946, 0.04920905693, 0.007236067977
6579, 0.05375738973, 0.04940488793, 0.007236067977
6580, 0.05378338612, 0.0496023501, 0.007236067977
6581, 0.05379901251, 0.04980090219, 0.007236067977
6582, 0.05375877048, 0.05, 0.007368080573
6583, 0.05375361922, 0.05019671885, 0.007368080573
6584, 0.05373817955, 0.0503928985, 0.007368080573
6585, 0.05371249378, 0.05058800125, 0.007368080573
6586, 0.05367663233, 0.05078149233, 0.007368080573
6587, 0.05363069348, 0.05097284139, 0.007368080573
6588, 0.05357480316, 0.05116152396, 0.007368080573
6589, 0.05350911455, 0.05134702287, 0.007368080573
6590, 0.0534338077, 0.05152882969, 0.007368080573
6591, 0.05334908902, 0.05170644609, 0.007368080573
6592, 0.05325519073, 0.05187938524, 0.007368080573
6593, 0.05315237018, 0.05204717313, 0.007368080573
6594, 0.0530409092, 0.05220934986, 0.007368080573
6595, 0.0529211133, 0.05236547091, 0.007368080573
6596, 0.05279331083, 0.05251510837, 0.007368080573
6597, 0.0526578521, 0.0526578521, 0.007368080573
6598, 0.05251510837, 0.05279331083, 0.007368080573
6599, 0.05236547091, 0.0529211133, 0.007368080573
6600, 0.05220934986, 0.0530409092, 0.007368080573
6601, 0.05204717313, 0.05315237018, 0.007368080573
6602, 0.05187938524, 0.05325519073, 0.007368080573
6603, 0.05170644609, 0.05334908902, 0.007368080573
6604, 0.05152882969, 0.0534338077, 0.007368080573
6605, 0.05134702287, 0.05350911455, 0.007368080573
6606, 0.05116152396, 0.05357480316, 0.007368080573
6607, 0.05097284139, 0.05363069348, 0.007368080573
6608, 0.05078149233, 0.05367663233, 0.007368080573
6609, 0.05058800125, 0.05371249378, 0.007368080573
6610, 0.0503928985, 0.05373817955, 0.007368080573
6611, 0.05019671885, 0.05375361922, 0.007368080573
6612, 0.05, 0.05375877048, 0.007368080573
6613, 0.04980328115, 0.05375361922, 0.007368080573
6614, 0.0496071015, 0.05373817955, 0.007368080573
6615, 0.04941199875, 0.05371249378, 0.007368080573
6616, 0.04921850767, 0.05367663233, 0.007368080573
6617, 0.04902715861, 0.05363069348, 0.007368080573
6618, 0.04883847604, 0.05357480316, 0.007368080573
6619, 0.04865297713, 0.05350911455, 0.007368080573
6620, 0.04847117031, 0.0534338077, 0.007368080573
6621, 0.04829355391, 0.05334908902, 0.007368080573
6622, 0.04812061476, 0.05325519073, 0.007368080573
6623, 0.04795282687, 0.05315237018, 0.007368080573
6624, 0.04779065014, 0.0530409092, 0.007368080573
6625, 0.04763452909, 0.0529211133, 0.007368080573
6626, 0.04748489163, 0.05279331083, 0.007368080573
6627, 0.0473421479, 0.0526578521, 0.007368080573
6628, 0.04720668917, 0.05251510837, 0.007368080573
6629, 0.0470788867, 0.05236547091, 0.007368080573
6630, 0.0469590908, 0.05220934986, 0.007368080573
6631, 0.04684762982, 0.05204717313, 0.007368080573
6632, 0.04674480927, 0.05187938524, 0.007368080573
6633, 0.04665091098, 0.05170644609, 0.007368080573
6634, 0.0465661923, 0.05152882969, 0.007368080573
6635, 0.04649088545, 0.05134702287, 0.007368080573
6636, 0.04642519684, 0.05116152396, 0.007368080573
6637, 0.04636930652, 0.05097284139, 0.007368080573
6638, 0.04632336767, 0.05078149233, 0.007368080573
6639, 0.04628750622, 0.05058800125, 0.007368080573
6640, 0.04626182045, 0.0503928985, 0.007368080573
6641, 0.04624638078, 0.05019671885, 0.007368080573
6642, 0.04624122952, 0.05, 0.007368080573
6643, 0.04624638078, 0.04980328115, 0.007368080573
6644, 0.04626182045, 0.0496071015, 0.007368080573
6645, 0.04628750622, 0.04941199875, 0.007368080573
6646, 0.04632336767, 0.04921850767, 0.007368080573
6647, 0.04636930652, 0.04902715861, 0.007368080573
6648, 0.04642519684, 0.04883847604, 0.007368080573
6649, 0.04649088545, 0.04865297713, 0.007368080573
6650, 0.0465661923, 0.04847117031, 0.007368080573
6651, 0.04665091098, 0.04829355391, 0.007368080573
6652, 0.04674480927, 0.04812061476, 0.007368080573
6653, 0.04684762982, 0.04795282687, 0.007368080573
6654, 0.0469590908, 0.04779065014, 0.007368080573
6655, 0.0470788867, 0.04763452909, 0.007368080573
6656, 0.04720668917, 0.04748489163, 0.007368080573
6657, 0.0473421479, 0.0473421479, 0.007368080573
6658, 0.04748489163, 0.04720668917, 0.007368080573
6659, 0.04763452909, 0.0470788867, 0.007368080573
6660, 0.04779065014, 0.0469590908, 0.007368080573
6661, 0.04795282687, 0.04684762982, 0.007368080573
6662, 0.04812061476, 0.04674480927, 0.007368080573
6663, 0.04829355391, 0.04665091098, 0.007368080573
6664, 0.04847117031, 0.0465661923, 0.007368080573
6665, 0.04865297713, 0.04649088545, 0.007368080573
6666, 0.04883847604, 0.04642519684, 0.007368080573
6667, 0.04902715861, 0.04636930652, 0.007368080573
6668, 0.04921850767, 0.04632336767, 0.007368080573
6669, 0.04941199875, 0.04628750622, 0.007368080573
6670, 0.0496071015, 0.04626182045, 0.007368080573
6671, 0.04980328115, 0.04624638078, 0.007368080573
6672, 0.05, 0.04624122952, 0.007368080573
6673, 0.05019671885, 0.04624638078, 0.007368080573
6674, 0.0503928985, 0.04626182045, 0.007368080573
6675, 0.05058800125, 0.04628750622, 0.007368080573
6676, 0.05078149233, 0.04632336767, 0.007368080573
6677, 0.05097284139, 0.04636930652, 0.007368080573
6678, 0.05116152396, 0.04642519684, 0.007368080573
6679, 0.05134702287, 0.04649088545, 0.007368080573
6680, 0.05152882969, 0.0465661923, 0.007368080573
6681, 0.05170644609, 0.04665091098, 0.007368080573
6682, 0.05187938524, 0.04674480927, 0.007368080573
6683, 0.05204717313, 0.04684762982, 0.007368080573
6684, 0.05220934986, 0.0469590908, 0.007368080573
6685, 0.05236547091, 0.0470788867, 0.007368080573
6686, 0.05251510837, 0.04720668917, 0.007368080573
6687, 0.0526578521, 0.0473421479, 0.007368080573
6688, 0.05279331083, 0.04748489163, 0.007368080573
6689, 0.0529211133, 0.04763452909, 0.007368080573
6690, 0.0530409092, 0.04779065014, 0.007368080573
6691, 0.05315237018, 0.04795282687, 0.007368080573
6692, 0.05325519073, 0.04812061476, 0.007368080573
6693, 0.05334908902, 0.04829355391, 0.007368080573
6694, 0.0534338077, 0.04847117031, 0.007368080573
6695, 0.05350911455, 0.04865297713, 0.007368080573
6696, 0.05357480316, 0.04883847604, 0.007368080573
6697, 0.05363069348, 0.04902715861, 0.007368080573
6698, 0.05367663233, 0.04921850767, 0.007368080573
6699, 0.05371249378, 0.04941199875, 0.007368080573
6700, 0.05373817955, 0.0496071015, 0.007368080573
6701, 0.05375361922, 0.04980328115, 0.007368080573
6702, 0.05370873542, 0.05, 0.007498426374
6703, 0.05370365273, 0.05019410021, 0.007498426374
6704, 0.05368841858, 0.05038766841, 0.007498426374
6705, 0.05366307473, 0.05058017404, 0.007498426374
6706, 0.05362769065, 0.05077108945, 0.007498426374
6707, 0.05358236332, 0.05095989136, 0.007498426374
6708, 0.05352721699, 0.05114606227, 0.007498426374
6709, 0.05346240279, 0.05132909191, 0.007498426374
6710, 0.05338809839, 0.05150847859, 0.007498426374
6711, 0.05330450745, 0.05168373065, 0.007498426374
6712, 0.05321185909, 0.05185436771, 0.007498426374
6713, 0.05311040724, 0.05201992208, 0.007498426374
6714, 0.05300042998, 0.05217993998, 0.007498426374
6715, 0.05288222875, 0.05233398282, 0.007498426374
6716, 0.05275612754, 0.05248162838, 0.007498426374
6717, 0.05262247196, 0.05262247196, 0.007498426374
6718, 0.05248162838, 0.05275612754, 0.007498426374
6719, 0.05233398282, 0.05288222875, 0.007498426374
6720, 0.05217993998, 0.05300042998, 0.007498426374
6721, 0.05201992208, 0.05311040724, 0.007498426374
6722, 0.05185436771, 0.05321185909, 0.007498426374
6723, 0.05168373065, 0.05330450745, 0.007498426374
6724, 0.05150847859, 0.05338809839, 0.007498426374
6725, 0.05132909191, 0.05346240279, 0.007498426374
6726, 0.05114606227, 0.05352721699, 0.007498426374
6727, 0.05095989136, 0.05358236332, 0.007498426374
6728, 0.05077108945, 0.05362769065, 0.007498426374
6729, 0.05058017404, 0.05366307473, 0.007498426374
6730, 0.05038766841, 0.05368841858, 0.007498426374
6731, 0.05019410021, 0.05370365273, 0.007498426374
6732, 0.05, 0.05370873542, 0.007498426374
6733, 0.04980589979, 0.05370365273, 0.007498426374
6734, 0.04961233159, 0.05368841858, 0.007498426374
6735, 0.04941982596, 0.05366307473, 0.007498426374
6736, 0.04922891055, 0.05362769065, 0.007498426374
6737, 0.04904010864, 0.05358236332, 0.007498426374
6738, 0.04885393773, 0.05352721699, 0.007498426374
6739, 0.04867090809, 0.05346240279, 0.007498426374
6740, 0.04849152141, 0.05338809839, 0.007498426374
6741, 0.04831626935, 0.05330450745, 0.007498426374
6742, 0.04814563229, 0.05321185909, 0.007498426374
6743, 0.04798007792, 0.05311040724, 0.007498426374
6744, 0.04782006002, 0.05300042998, 0.007498426374
6745, 0.04766601718, 0.05288222875, 0.007498426374
6746, 0.04751837162, 0.05275612754, 0.007498426374
6747, 0.04737752804, 0.05262247196, 0.007498426374
6748, 0.04724387246, 0.05248162838, 0.007498426374
6749, 0.04711777125, 0.05233398282, 0.007498426374
6750, 0.04699957002, 0.05217993998, 0.007498426374
6751, 0.04688959276, 0.05201992208, 0.007498426374
6752, 0.04678814091, 0.05185436771, 0.007498426374
6753, 0.04669549255, 0.05168373065, 0.007498426374
6754, 0.04661190161, 0.05150847859, 0.007498426374
6755, 0.04653759721, 0.05132909191, 0.007498426374
6756, 0.04647278301, 0.05114606227, 0.007498426374
6757, 0.04641763668, 0.05095989136, 0.007498426374
6758, 0.04637230935, 0.05077108945, 0.007498426374
6759, 0.04633692527, 0.05058017404, 0.007498426374
6760, 0.04631158142, 0.05038766841, 0.007498426374
6761, 0.04629634727, 0.05019410021, 0.007498426374
6762, 0.04629126458, 0.05, 0.007498426374
6763, 0.04629634727, 0.04980589979, 0.007498426374
6764, 0.04631158142, 0.04961233159, 0.007498426374
6765, 0.04633692527, 0.04941982596, 0.007498426374
6766, 0.04637230935, 0.04922891055, 0.007498426374
6767, 0.04641763668, 0.04904010864, 0.007498426374
6768, 0.04647278301, 0.04885393773, 0.007498426374
6769, 0.04653759721, 0.04867090809, 0.007498426374
6770, 0.04661190161, 0.04849152141, 0.007498426374
6771, 0.04669549255, 0.04831626935, 0.007498426374
6772, 0.04678814091, 0.04814563229, 0.007498426374
6773, 0.04688959276, 0.04798007792, 0.007498426374
6774, 0.04699957002, 0.04782006002, 0.007498426374
6775, 0.04711777125, 0.04766601718, 0.007498426374
6776, 0.04724387246, 0.04751837162, 0.007498426374
6777, 0.04737752804, 0.04737752804, 0.007498426374
6778, 0.04751837162, 0.04724387246, 0.007498426374
6779, 0.04766601718, 0.04711777125, 0.007498426374
6780, 0.04782006002, 0.04699957002, 0.007498426374
6781, 0.04798007792, 0.04688959276, 0.007498426374
6782, 0.04814563229, 0.04678814091, 0.007498426374
6783, 0.04831626935, 0.04669549255, 0.007498426374
6784, 0.04849152141, 0.04661190161, 0.007498426374
6785, 0.04867090809, 0.04653759721, 0.007498426374
6786, 0.04885393773, 0.04647278301, 0.007498426374
6787, 0.04904010864, 0.04641763668, 0.007498426374
6788, 0.04922891055, 0.04637230935, 0.007498426374
6789, 0.04941982596, 0.04633692527, 0.007498426374
6790, 0.04961233159, 0.04631158142, 0.007498426374
6791, 0.04980589979, 0.04629634727, 0.007498426374
6792, 0.05, 0.04629126458, 0.007498426374
6793, 0.05019410021, 0.04629634727, 0.007498426374
6794, 0.05038766841, 0.04631158142, 0.007498426374
6795, 0.05058017404, 0.04633692527, 0.007498426374
6796, 0.05077108945, 0.04637230935, 0.007498426374
6797, 0.05095989136, 0.04641763668, 0.007498426374
6798, 0.05114606227, 0.04647278301, 0.007498426374
6799, 0.05132909191, 0.04653759721, 0.007498426374
6800, 0.05150847859, 0.04661190161, 0.007498426374
6801, 0.05168373065, 0.04669549255, 0.007498426374
6802, 0.05185436771, 0.04678814091, 0.007498426374
6803, 0.05201992208, 0.04688959276, 0.007498426374
6804, 0.05217993998, 0.04699957002, 0.007498426374
6805, 0.05233398282, 0.04711777125, 0.007498426374
6806, 0.05248162838, 0.04724387246, 0.007498426374
6807, 0.05262247196, 0.04737752804, 0.007498426374
6808, 0.05275612754, 0.04751837162, 0.007498426374
6809, 0.05288222875, 0.04766601718, 0.007498426374
6810, 0.05300042998, 0.04782006002, 0.007498426374
6811, 0.05311040724, 0.04798007792, 0.007498426374
6812, 0.05321185909, 0.04814563229, 0.007498426374
6813, 0.05330450745, 0.04831626935, 0.007498426374
6814, 0.05338809839, 0.04849152141, 0.007498426374
6815, 0.05346240279, 0.04867090809, 0.007498426374
6816, 0.05352721699, 0.04885393773, 0.007498426374
6817, 0.05358236332, 0.04904010864, 0.007498426374
6818, 0.05362769065, 0.04922891055, 0.007498426374
6819, 0.05366307473, 0.04941982596, 0.007498426374
6820, 0.05368841858, 0.04961233159, 0.007498426374
6821, 0.05370365273, 0.04980589979, 0.007498426374
6822, 0.05365418183, 0.05, 0.007626946572
6823, 0.0536491739, 0.0501912451, 0.007626946572
6824, 0.05363416384, 0.05038196601, 0.007626946572
6825, 0.05360919279, 0.05057163998, 0.007626946572
6826, 0.05357432919, 0.05075974712, 0.007626946572
6827, 0.0535296686, 0.05094577185, 0.007626946572
6828, 0.05347533344, 0.05112920429, 0.007626946572
6829, 0.05341147263, 0.05130954165, 0.007626946572
6830, 0.05333826121, 0.05148628965, 0.007626946572
6831, 0.05325589985, 0.05165896384, 0.007626946572
6832, 0.0531646143, 0.05182709092, 0.007626946572
6833, 0.05306465475, 0.05199021007, 0.007626946572
6834, 0.0529562952, 0.05214787419, 0.007626946572
6835, 0.05283983265, 0.05229965114, 0.007626946572
6836, 0.05271558632, 0.0524451249, 0.007626946572
6837, 0.05258389675, 0.05258389675, 0.007626946572
6838, 0.0524451249, 0.05271558632, 0.007626946572
6839, 0.05229965114, 0.05283983265, 0.007626946572
6840, 0.05214787419, 0.0529562952, 0.007626946572
6841, 0.05199021007, 0.05306465475, 0.007626946572
6842, 0.05182709092, 0.0531646143, 0.007626946572
6843, 0.05165896384, 0.05325589985, 0.007626946572
6844, 0.05148628965, 0.05333826121, 0.007626946572
6845, 0.05130954165, 0.05341147263, 0.007626946572
6846, 0.05112920429, 0.05347533344, 0.007626946572
6847, 0.05094577185, 0.0535296686, 0.007626946572
6848, 0.05075974712, 0.05357432919, 0.007626946572
6849, 0.05057163998, 0.05360919279, 0.007626946572
6850, 0.05038196601, 0.05363416384, 0.007626946572
6851, 0.0501912451, 0.0536491739, 0.007626946572
6852, 0.05, 0.05365418183, 0.007626946572
6853, 0.0498087549, 0.0536491739, 0.007626946572
6854, 0.04961803399, 0.05363416384, 0.007626946572
6855, 0.04942836002, 0.05360919279, 0.007626946572
6856, 0.04924025288, 0.05357432919, 0.007626946572
6857, 0.04905422815, 0.0535296686, 0.007626946572
6858, 0.04887079571, 0.05347533344, 0.007626946572
6859, 0.04869045835, 0.05341147263, 0.007626946572
6860, 0.04851371035, 0.05333826121, 0.007626946572
6861, 0.04834103616, 0.05325589985, 0.007626946572
6862, 0.04817290908, 0.0531646143, 0.007626946572
6863, 0.04800978993, 0.05306465475, 0.007626946572
6864, 0.04785212581, 0.0529562952, 0.007626946572
6865, 0.04770034886, 0.05283983265, 0.007626946572
6866, 0.0475548751, 0.05271558632, 0.007626946572
6867, 0.04741610325, 0.05258389675, 0.007626946572
6868, 0.04728441368, 0.0524451249, 0.007626946572
6869, 0.04716016735, 0.05229965114, 0.007626946572
6870, 0.0470437048, 0.05214787419, 0.007626946572
6871, 0.04693534525, 0.05199021007, 0.007626946572
6872, 0.0468353857, 0.05182709092, 0.007626946572
6873, 0.04674410015, 0.05165896384, 0.007626946572
6874, 0.04666173879, 0.05148628965, 0.007626946572
6875, 0.04658852737, 0.05130954165, 0.007626946572
6876, 0.04652466656, 0.05112920429, 0.007626946572
6877, 0.0464703314, 0.05094577185, 0.007626946572
6878, 0.04642567081, 0.05075974712, 0.007626946572
6879, 0.04639080721, 0.05057163998, 0.007626946572
6880, 0.04636583616, 0.05038196601, 0.007626946572
6881, 0.0463508261, 0.0501912451, 0.007626946572
6882, 0.04634581817, 0.05, 0.007626946572
6883, 0.0463508261, 0.0498087549, 0.007626946572
6884, 0.04636583616, 0.04961803399, 0.007626946572
6885, 0.04639080721, 0.04942836002, 0.007626946572
6886, 0.04642567081, 0.04924025288, 0.007626946572
6887, 0.0464703314, 0.04905422815, 0.007626946572
6888, 0.04652466656, 0.04887079571, 0.007626946572
6889, 0.04658852737, 0.04869045835, 0.007626946572
6890, 0.04666173879, 0.04851371035, 0.007626946572
6891, 0.04674410015, 0.04834103616, 0.007626946572
6892, 0.0468353857, 0.04817290908, 0.007626946572
6893, 0.04693534525, 0.04800978993, 0.007626946572
6894, 0.0470437048, 0.04785212581, 0.007626946572
6895, 0.04716016735, 0.04770034886, 0.007626946572
6896, 0.04728441368, 0.0475548751, 0.007626946572
6897, 0.04741610325, 0.04741610325, 0.007626946572
6898, 0.0475548751, 0.04728441368, 0.007626946572
6899, 0.04770034886, 0.04716016735, 0.007626946572
6900, 0.04785212581, 0.0470437048, 0.007626946572
6901, 0.04800978993, 0.04693534525, 0.007626946572
6902, 0.04817290908, 0.0468353857, 0.007626946572
6903, 0.04834103616, 0.04674410015, 0.007626946572
6904, 0.04851371035, 0.04666173879, 0.007626946572
6905, 0.04869045835, 0.04658852737, 0.007626946572
6906, 0.04887079571, 0.04652466656, 0.007626946572
6907, 0.04905422815, 0.0464703314, 0.007626946572
6908, 0.04924025288, 0.04642567081, 0.007626946572
6909, 0.04942836002, 0.04639080721, 0.007626946572
6910, 0.04961803399, 0.04636583616, 0.007626946572
6911, 0.0498087549, 0.0463508261, 0.007626946572
6912, 0.05, 0.04634581817, 0.007626946572
6913, 0.0501912451, 0.0463508261, 0.007626946572
6914, 0.05038196601, 0.04636583616, 0.007626946572
6915, 0.05057163998, 0.04639080721, 0.007626946572
6916, 0.05075974712, 0.04642567081, 0.007626946572
6917, 0.05094577185, 0.0464703314, 0.007626946572
6918, 0.05112920429, 0.04652466656, 0.007626946572
6919, 0.05130954165, 0.04658852737, 0.007626946572
6920, 0.05148628965, 0.04666173879, 0.007626946572
6921, 0.05165896384, 0.04674410015, 0.007626946572
6922, 0.05182709092, 0.0468353857, 0.007626946572
6923, 0.05199021007, 0.04693534525, 0.007626946572
6924, 0.05214787419, 0.0470437048, 0.007626946572
6925, 0.05229965114, 0.04716016735, 0.007626946572
6926, 0.0524451249, 0.04728441368, 0.007626946572
6927, 0.05258389675, 0.04741610325, 0.007626946572
6928, 0.05271558632, 0.0475548751, 0.007626946572
6929, 0.05283983265, 0.04770034886, 0.007626946572
6930, 0.0529562952, 0.04785212581, 0.007626946572
6931, 0.05306465475, 0.04800978993, 0.007626946572
6932, 0.0531646143, 0.04817290908, 0.007626946572
6933, 0.05325589985, 0.04834103616, 0.007626946572
6934, 0.05333826121, 0.04851371035, 0.007626946572
6935, 0.05341147263, 0.04869045835, 0.007626946572
6936, 0.05347533344, 0.04887079571, 0.007626946572
6937, 0.0535296686, 0.04905422815, 0.007626946572
6938, 0.05357432919, 0.04924025288, 0.007626946572
6939, 0.05360919279, 0.04942836002, 0.007626946572
6940, 0.05363416384, 0.04961803399, 0.007626946572
6941, 0.0536491739, 0.0498087549, 0.007626946572
6942, 0.05359517619, 0.05, 0.007753484587
6943, 0.05359024912, 0.05018815698, 0.007753484587
6944, 0.05357548143, 0.05037579824, 0.007753484587
6945, 0.0535509136, 0.05056240946, 0.007753484587
6946, 0.05351661296, 0.05074747916, 0.007753484587
6947, 0.05347267353, 0.05093050007, 0.007753484587
6948, 0.05341921574, 0.05111097054, 0.007753484587
6949, 0.05335638612, 0.05128839592, 0.007753484587
6950, 0.05328435687, 0.05146228989, 0.007753484587
6951, 0.05320332544, 0.05163217583, 0.007753484587
6952, 0.05311351391, 0.05179758809, 0.007753484587
6953, 0.05301516845, 0.05195807329, 0.007753484587
6954, 0.05290855863, 0.05211319154, 0.007753484587
6955, 0.05279397665, 0.05226251768, 0.007753484587
6956, 0.05267173658, 0.05240564242, 0.007753484587
6957, 0.05254217346, 0.05254217346, 0.007753484587
6958, 0.05240564242, 0.05267173658, 0.007753484587
6959, 0.05226251768, 0.05279397665, 0.007753484587
6960, 0.05211319154, 0.05290855863, 0.007753484587
6961, 0.05195807329, 0.05301516845, 0.007753484587
6962, 0.05179758809, 0.05311351391, 0.007753484587
6963, 0.05163217583, 0.05320332544, 0.007753484587
6964, 0.05146228989, 0.05328435687, 0.007753484587
6965, 0.05128839592, 0.05335638612, 0.007753484587
6966, 0.05111097054, 0.05341921574, 0.007753484587
6967, 0.05093050007, 0.05347267353, 0.007753484587
6968, 0.05074747916, 0.05351661296, 0.007753484587
6969, 0.05056240946, 0.0535509136, 0.007753484587
6970, 0.05037579824, 0.05357548143, 0.007753484587
6971, 0.05018815698, 0.05359024912, 0.007753484587
6972, 0.05, 0.05359517619, 0.007753484587
6973, 0.04981184302, 0.05359024912, 0.007753484587
6974, 0.04962420176, 0.05357548143, 0.007753484587
6975, 0.04943759054, 0.0535509136, 0.007753484587
6976, 0.04925252084, 0.05351661296, 0.007753484587
6977, 0.04906949993, 0.05347267353, 0.007753484587
6978, 0.04888902946, 0.05341921574, 0.007753484587
6979, 0.04871160408, 0.05335638612, 0.007753484587
6980, 0.04853771011, 0.05328435687, 0.007753484587
6981, 0.04836782417, 0.05320332544, 0.007753484587
6982, 0.04820241191, 0.05311351391, 0.007753484587
6983, 0.04804192671, 0.05301516845, 0.007753484587
6984, 0.04788680846, 0.05290855863, 0.007753484587
6985, 0.04773748232, 0.05279397665, 0.007753484587
6986, 0.04759435758, 0.05267173658, 0.007753484587
6987, 0.04745782654, 0.05254217346, 0.007753484587
6988, 0.04732826342, 0.05240564242, 0.007753484587
6989, 0.04720602335, 0.05226251768, 0.007753484587
6990, 0.04709144137, 0.05211319154, 0.007753484587
6991, 0.04698483155, 0.05195807329, 0.007753484587
6992, 0.04688648609, 0.05179758809, 0.007753484587
6993, 0.04679667456, 0.05163217583, 0.007753484587
6994, 0.04671564313, 0.05146228989, 0.007753484587
6995, 0.04664361388, 0.05128839592, 0.007753484587
6996, 0.04658078426, 0.05111097054, 0.007753484587
6997, 0.04652732647, 0.05093050007, 0.007753484587
6998, 0.04648338704, 0.05074747916, 0.007753484587
6999, 0.0464490864, 0.05056240946, 0.007753484587
7000, 0.04642451857, 0.05037579824, 0.007753484587
7001, 0.04640975088, 0.05018815698, 0.007753484587
7002, 0.04640482381, 0.05, 0.007753484587
7003, 0.04640975088, 0.04981184302, 0.007753484587
7004, 0.04642451857, 0.04962420176, 0.007753484587
7005, 0.0464490864, 0.04943759054, 0.007753484587
7006, 0.04648338704, 0.04925252084, 0.007753484587
7007, 0.04652732647, 0.04906949993, 0.007753484587
7008, 0.04658078426, 0.04888902946, 0.007753484587
7009, 0.04664361388, 0.04871160408, 0.007753484587
7010, 0.04671564313, 0.04853771011, 0.007753484587
7011, 0.04679667456, 0.04836782417, 0.007753484587
7012, 0.04688648609, 0.04820241191, 0.007753484587
7013, 0.04698483155, 0.04804192671, 0.007753484587
7014, 0.04709144137, 0.04788680846, 0.007753484587
7015, 0.04720602335, 0.04773748232, 0.007753484587
7016, 0.04732826342, 0.04759435758, 0.007753484587
7017, 0.04745782654, 0.04745782654, 0.007753484587
7018, 0.04759435758, 0.04732826342, 0.007753484587
7019, 0.04773748232, 0.04720602335, 0.007753484587
7020, 0.04788680846, 0.04709144137, 0.007753484587
7021, 0.04804192671, 0.04698483155, 0.007753484587
7022, 0.04820241191, 0.04688648609, 0.007753484587
7023, 0.04836782417, 0.04679667456, 0.007753484587
7024, 0.04853771011, 0.04671564313, 0.007753484587
7025, 0.04871160408, 0.04664361388, 0.007753484587
7026, 0.04888902946, 0.04658078426, 0.007753484587
7027, 0.04906949993, 0.04652732647, 0.007753484587
7028, 0.04925252084, 0.04648338704, 0.007753484587
7029, 0.04943759054, 0.0464490864, 0.007753484587
7030, 0.04962420176, 0.04642451857, 0.007753484587
7031, 0.04981184302, 0.04640975088, 0.007753484587
7032, 0.05, 0.04640482381, 0.007753484587
7033, 0.05018815698, 0.04640975088, 0.007753484587
7034, 0.05037579824, 0.04642451857, 0.007753484587
7035, 0.05056240946, 0.0464490864, 0.007753484587
7036, 0.05074747916, 0.04648338704, 0.007753484587
7037, 0.05093050007, 0.04652732647, 0.007753484587
7038, 0.05111097054, 0.04658078426, 0.007753484587
7039, 0.05128839592, 0.04664361388, 0.007753484587
7040, 0.05146228989, 0.04671564313, 0.007753484587
7041, 0.05163217583, 0.04679667456, 0.007753484587
7042, 0.05179758809, 0.04688648609, 0.007753484587
7043, 0.05195807329, 0.04698483155, 0.007753484587
7044, 0.05211319154, 0.04709144137, 0.007753484587
7045, 0.05226251768, 0.04720602335, 0.007753484587
7046, 0.05240564242, 0.04732826342, 0.007753484587
7047, 0.05254217346, 0.04745782654, 0.007753484587
7048, 0.05267173658, 0.04759435758, 0.007753484587
7049, 0.05279397665, 0.04773748232, 0.007753484587
7050, 0.05290855863, 0.04788680846, 0.007753484587
7051, 0.05301516845, 0.04804192671, 0.007753484587
7052, 0.05311351391, 0.04820241191, 0.007753484587
7053, 0.05320332544, 0.04836782417, 0.007753484587
7054, 0.05328435687, 0.04853771011, 0.007753484587
7055, 0.05335638612, 0.04871160408, 0.007753484587
7056, 0.05341921574, 0.04888902946, 0.007753484587
7057, 0.05347267353, 0.04906949993, 0.007753484587
7058, 0.05351661296, 0.04925252084, 0.007753484587
7059, 0.0535509136, 0.04943759054, 0.007753484587
7060, 0.05357548143, 0.04962420176, 0.007753484587
7061, 0.05359024912, 0.04981184302, 0.007753484587
7062, 0.05353179037, 0.05, 0.007877886251
7063, 0.05352695018, 0.05018483963, 0.007877886251
7064, 0.05351244285, 0.05036917262, 0.007877886251
7065, 0.05348830817, 0.05055249374, 0.007877886251
7066, 0.05345461228, 0.05073430051, 0.007877886251
7067, 0.05341144753, 0.05091409461, 0.007877886251
7068, 0.05335893225, 0.05109138325, 0.007877886251
7069, 0.05329721036, 0.05126568047, 0.007877886251
7070, 0.05322645105, 0.05143650856, 0.007877886251
7071, 0.05314684826, 0.05160339928, 0.007877886251
7072, 0.05305862018, 0.05176589519, 0.007877886251
7073, 0.05296200864, 0.0519235509, 0.007877886251
7074, 0.05285727843, 0.05207593429, 0.007877886251
7075, 0.05274471662, 0.0522226277, 0.007877886251
7076, 0.05262463174, 0.05236322903, 0.007877886251
7077, 0.05249735292, 0.05249735292, 0.007877886251
7078, 0.05236322903, 0.05262463174, 0.007877886251
7079, 0.0522226277, 0.05274471662, 0.007877886251
7080, 0.05207593429, 0.05285727843, 0.007877886251
7081, 0.0519235509, 0.05296200864, 0.007877886251
7082, 0.05176589519, 0.05305862018, 0.007877886251
7083, 0.05160339928, 0.05314684826, 0.007877886251
7084, 0.05143650856, 0.05322645105, 0.007877886251
7085, 0.05126568047, 0.05329721036, 0.007877886251
7086, 0.05109138325, 0.05335893225, 0.007877886251
7087, 0.05091409461, 0.05341144753, 0.007877886251
7088, 0.05073430051, 0.05345461228, 0.007877886251
7089, 0.05055249374, 0.05348830817, 0.007877886251
7090, 0.05036917262, 0.05351244285, 0.007877886251
7091, 0.05018483963, 0.05352695018, 0.007877886251
7092, 0.05, 0.05353179037, 0.007877886251
7093, 0.04981516037, 0.05352695018, 0.007877886251
7094, 0.04963082738, 0.05351244285, 0.007877886251
7095, 0.04944750626, 0.05348830817, 0.007877886251
7096, 0.04926569949, 0.05345461228, 0.007877886251
7097, 0.04908590539, 0.05341144753, 0.007877886251
7098, 0.04890861675, 0.05335893225, 0.007877886251
7099, 0.04873431953, 0.05329721036, 0.007877886251
7100, 0.04856349144, 0.05322645105, 0.007877886251
7101, 0.04839660072, 0.05314684826, 0.007877886251
7102, 0.04823410481, 0.05305862018, 0.007877886251
7103, 0.0480764491, 0.05296200864, 0.007877886251
7104, 0.04792406571, 0.05285727843, 0.007877886251
7105, 0.0477773723, 0.05274471662, 0.007877886251
7106, 0.04763677097, 0.05262463174, 0.007877886251
7107, 0.04750264708, 0.05249735292, 0.007877886251
7108, 0.04737536826, 0.05236322903, 0.007877886251
7109, 0.04725528338, 0.0522226277, 0.007877886251
7110, 0.04714272157, 0.05207593429, 0.007877886251
7111, 0.04703799136, 0.0519235509, 0.007877886251
7112, 0.04694137982, 0.05176589519, 0.007877886251
7113, 0.04685315174, 0.05160339928, 0.007877886251
7114, 0.04677354895, 0.05143650856, 0.007877886251
7115, 0.04670278964, 0.05126568047, 0.007877886251
7116, 0.04664106775, 0.05109138325, 0.007877886251
7117, 0.04658855247, 0.05091409461, 0.007877886251
7118, 0.04654538772, 0.05073430051, 0.007877886251
7119, 0.04651169183, 0.05055249374, 0.007877886251
7120, 0.04648755715, 0.05036917262, 0.007877886251
7121, 0.04647304982, 0.05018483963, 0.007877886251
7122, 0.04646820963, 0.05, 0.007877886251
7123, 0.04647304982, 0.04981516037, 0.007877886251
7124, 0.04648755715, 0.04963082738, 0.007877886251
7125, 0.04651169183, 0.04944750626, 0.007877886251
7126, 0.04654538772, 0.04926569949, 0.007877886251
7127, 0.04658855247, 0.04908590539, 0.007877886251
7128, 0.04664106775, 0.04890861675, 0.007877886251
7129, 0.04670278964, 0.04873431953, 0.007877886251
7130, 0.04677354895, 0.04856349144, 0.007877886251
7131, 0.04685315174, 0.04839660072, 0.007877886251
7132, 0.04694137982, 0.04823410481, 0.007877886251
7133, 0.04703799136, 0.0480764491, 0.007877886251
7134, 0.04714272157, 0.04792406571, 0.007877886251
7135, 0.04725528338, 0.0477773723, 0.007877886251
7136, 0.04737536826, 0.04763677097, 0.007877886251
7137, 0.04750264708, 0.04750264708, 0.007877886251
7138, 0.04763677097, 0.04737536826, 0.007877886251
7139, 0.0477773723, 0.04725528338, 0.007877886251
7140, 0.04792406571, 0.04714272157, 0.007877886251
7141, 0.0480764491, 0.04703799136, 0.007877886251
7142, 0.04823410481, 0.04694137982, 0.007877886251
7143, 0.04839660072, 0.04685315174, 0.007877886251
7144, 0.04856349144, 0.04677354895, 0.007877886251
7145, 0.04873431953, 0.04670278964, 0.007877886251
7146, 0.04890861675, 0.04664106775, 0.007877886251
7147, 0.04908590539, 0.04658855247, 0.007877886251
7148, 0.04926569949, 0.04654538772, 0.007877886251
7149, 0.04944750626, 0.04651169183, 0.007877886251
7150, 0.04963082738, 0.04648755715, 0.007877886251
7151, 0.04981516037, 0.04647304982, 0.007877886251
7152, 0.05, 0.04646820963, 0.007877886251
7153, 0.05018483963, 0.04647304982, 0.007877886251
7154, 0.05036917262, 0.04648755715, 0.007877886251
7155, 0.05055249374, 0.04651169183, 0.007877886251
7156, 0.05073430051, 0.04654538772, 0.007877886251
7157, 0.05091409461, 0.04658855247, 0.007877886251
7158, 0.05109138325, 0.04664106775, 0.007877886251
7159, 0.05126568047, 0.04670278964, 0.007877886251
7160, 0.05143650856, 0.04677354895, 0.007877886251
7161, 0.05160339928, 0.04685315174, 0.007877886251
7162, 0.05176589519, 0.04694137982, 0.007877886251
7163, 0.0519235509, 0.04703799136, 0.007877886251
7164, 0.05207593429, 0.04714272157, 0.007877886251
7165, 0.0522226277, 0.04725528338, 0.007877886251
7166, 0.05236322903, 0.04737536826, 0.007877886251
7167, 0.05249735292, 0.04750264708, 0.007877886251
7168, 0.05262463174, 0.04763677097, 0.007877886251
7169, 0.05274471662, 0.0477773723, 0.007877886251
7170, 0.05285727843, 0.04792406571, 0.007877886251
7171, 0.05296200864, 0.0480764491, 0.007877886251
7172, 0.05305862018, 0.04823410481, 0.007877886251
7173, 0.05314684826, 0.04839660072, 0.007877886251
7174, 0.05322645105, 0.04856349144, 0.007877886251
7175, 0.05329721036, 0.04873431953, 0.007877886251
7176, 0.05335893225, 0.04890861675, 0.007877886251
7177, 0.05341144753, 0.04908590539, 0.007877886251
7178, 0.05345461228, 0.04926569949, 0.007877886251
7179, 0.05348830817, 0.04944750626, 0.007877886251
7180, 0.05351244285, 0.04963082738, 0.007877886251
7181, 0.05352695018, 0.04981516037, 0.007877886251
7182, 0.05346410162, 0.05, 0.008
7183, 0.05345935418, 0.05018129707, 0.008
7184, 0.0534451249, 0.05036209722, 0.008
7185, 0.05342145278, 0.05054190488, 0.008
7186, 0.05338840268, 0.05072022722, 0.008
7187, 0.05334606521, 0.05089657547, 0.008
7188, 0.05329455641, 0.05107046627, 0.008
7189, 0.05323401746, 0.05124142299, 0.008
7190, 0.0531646143, 0.05140897706, 0.008
7191, 0.05308653714, 0.05157266922, 0.008
7192, 0.053, 0.05173205081, 0.008
7193, 0.05290524007, 0.05188668496, 0.008
7194, 0.05280251708, 0.05203614784, 0.008
7195, 0.05269211258, 0.05218002978, 0.008
7196, 0.05257432919, 0.05231793641, 0.008
7197, 0.05244948974, 0.05244948974, 0.008
7198, 0.05231793641, 0.05257432919, 0.008
7199, 0.05218002978, 0.05269211258, 0.008
7200, 0.05203614784, 0.05280251708, 0.008
7201, 0.05188668496, 0.05290524007, 0.008
7202, 0.05173205081, 0.053, 0.008
7203, 0.05157266922, 0.05308653714, 0.008
7204, 0.05140897706, 0.0531646143, 0.008
7205, 0.05124142299, 0.05323401746, 0.008
7206, 0.05107046627, 0.05329455641, 0.008
7207, 0.05089657547, 0.05334606521, 0.008
7208, 0.05072022722, 0.05338840268, 0.008
7209, 0.05054190488, 0.05342145278, 0.008
7210, 0.05036209722, 0.0534451249, 0.008
7211, 0.05018129707, 0.05345935418, 0.008
7212, 0.05, 0.05346410162, 0.008
7213, 0.04981870293, 0.05345935418, 0.008
7214, 0.04963790278, 0.0534451249, 0.008
7215, 0.04945809512, 0.05342145278, 0.008
7216, 0.04927977278, 0.05338840268, 0.008
7217, 0.04910342453, 0.05334606521, 0.008
7218, 0.04892953373, 0.05329455641, 0.008
7219, 0.04875857701, 0.05323401746, 0.008
7220, 0.04859102294, 0.0531646143, 0.008
7221, 0.04842733078, 0.05308653714, 0.008
7222, 0.04826794919, 0.053, 0.008
7223, 0.04811331504, 0.05290524007, 0.008
7224, 0.04796385216, 0.05280251708, 0.008
7225, 0.04781997022, 0.05269211258, 0.008
7226, 0.04768206359, 0.05257432919, 0.008
7227, 0.04755051026, 0.05244948974, 0.008
7228, 0.04742567081, 0.05231793641, 0.008
7229, 0.04730788742, 0.05218002978, 0.008
7230, 0.04719748292, 0.05203614784, 0.008
7231, 0.04709475993, 0.05188668496, 0.008
7232, 0.047, 0.05173205081, 0.008
7233, 0.04691346286, 0.05157266922, 0.008
7234, 0.0468353857, 0.05140897706, 0.008
7235, 0.04676598254, 0.05124142299, 0.008
7236, 0.04670544359, 0.05107046627, 0.008
7237, 0.04665393479, 0.05089657547, 0.008
7238, 0.04661159732, 0.05072022722, 0.008
7239, 0.04657854722, 0.05054190488, 0.008
7240, 0.0465548751, 0.05036209722, 0.008
7241, 0.04654064582, 0.05018129707, 0.008
7242, 0.04653589838, 0.05, 0.008
7243, 0.04654064582, 0.04981870293, 0.008
7244, 0.0465548751, 0.04963790278, 0.008
7245, 0.04657854722, 0.04945809512, 0.008
7246, 0.04661159732, 0.04927977278, 0.008
7247, 0.04665393479, 0.04910342453, 0.008
7248, 0.04670544359, 0.04892953373, 0.008
7249, 0.04676598254, 0.04875857701, 0.008
7250, 0.0468353857, 0.04859102294, 0.008
7251, 0.04691346286, 0.04842733078, 0.008
7252, 0.047, 0.04826794919, 0.008
7253, 0.04709475993, 0.04811331504, 0.008
7254, 0.04719748292, 0.04796385216, 0.008
7255, 0.04730788742, 0.04781997022, 0.008
7256, 0.04742567081, 0.04768206359, 0.008
7257, 0.04755051026, 0.04755051026, 0.008
7258, 0.04768206359, 0.04742567081, 0.008
7259, 0.04781997022, 0.04730788742, 0.008
7260, 0.04796385216, 0.04719748292, 0.008
7261, 0.04811331504, 0.04709475993, 0.008
7262, 0.04826794919, 0.047, 0.008
7263, 0.04842733078, 0.04691346286, 0.008
7264, 0.04859102294, 0.0468353857, 0.008
7265, 0.04875857701, 0.04676598254, 0.008
7266, 0.04892953373, 0.04670544359, 0.008
7267, 0.04910342453, 0.04665393479, 0.008
7268, 0.04927977278, 0.04661159732, 0.008
7269, 0.04945809512, 0.04657854722, 0.008
7270, 0.04963790278, 0.0465548751, 0.008
7271, 0.04981870293, 0.04654064582, 0.008
7272, 0.05, 0.04653589838, 0.008
7273, 0.05018129707, 0.04654064582, 0.008
7274, 0.05036209722, 0.0465548751, 0.008
7275, 0.05054190488, 0.04657854722, 0.008
7276, 0.05072022722, 0.04661159732, 0.008
7277, 0.05089657547, 0.04665393479, 0.008
7278, 0.05107046627, 0.04670544359, 0.008
7279, 0.05124142299, 0.04676598254, 0.008
7280, 0.05140897706, 0.0468353857, 0.008
7281, 0.05157266922, 0.04691346286, 0.008
7282, 0.05173205081, 0.047, 0.008
7283, 0.05188668496, 0.04709475993, 0.008
7284, 0.05203614784, 0.04719748292, 0.008
7285, 0.05218002978, 0.04730788742, 0.008
7286, 0.05231793641, 0.04742567081, 0.008
7287, 0.05244948974, 0.04755051026, 0.008
7288, 0.05257432919, 0.04768206359, 0.008
7289, 0.05269211258, 0.04781997022, 0.008
7290, 0.05280251708, 0.04796385216, 0.008
7291, 0.05290524007, 0.04811331504, 0.008
7292, 0.053, 0.04826794919, 0.008
7293, 0.05308653714, 0.04842733078, 0.008
7294, 0.0531646143, 0.04859102294, 0.008
7295, 0.05323401746, 0.04875857701, 0.008
7296, 0.05329455641, 0.04892953373, 0.008
7297, 0.05334606521, 0.04910342453, 0.008
7298, 0.05338840268, 0.04927977278, 0.008
7299, 0.05342145278, 0.04945809512, 0.008
7300, 0.0534451249, 0.04963790278, 0.008
7301, 0.05345935418, 0.04981870293, 0.008
7302, 0.05339219238, 0.05, 0.008119677057
7303, 0.0533875435, 0.05017753363, 0.008119677057
7304, 0.0533736096, 0.05035458066, 0.008119677057
7305, 0.05335042887, 0.0505306558, 0.008119677057
7306, 0.05331806484, 0.05070527645, 0.008119677057
7307, 0.05327660623, 0.05087796399, 0.008119677057
7308, 0.05322616667, 0.0510482451, 0.008119677057
7309, 0.05316688441, 0.05121565303, 0.008119677057
7310, 0.05309892194, 0.05137972894, 0.008119677057
7311, 0.05302246555, 0.05154002312, 0.008119677057
7312, 0.05293772478, 0.05169609619, 0.008119677057
7313, 0.05284493191, 0.05184752039, 0.008119677057
7314, 0.05274434129, 0.05199388066, 0.008119677057
7315, 0.05263622861, 0.05213477584, 0.008119677057
7316, 0.05252089022, 0.05226981975, 0.008119677057
7317, 0.05239864224, 0.05239864224, 0.008119677057
7318, 0.05226981975, 0.05252089022, 0.008119677057
7319, 0.05213477584, 0.05263622861, 0.008119677057
7320, 0.05199388066, 0.05274434129, 0.008119677057
7321, 0.05184752039, 0.05284493191, 0.008119677057
7322, 0.05169609619, 0.05293772478, 0.008119677057
7323, 0.05154002312, 0.05302246555, 0.008119677057
7324, 0.05137972894, 0.05309892194, 0.008119677057
7325, 0.05121565303, 0.05316688441, 0.008119677057
7326, 0.0510482451, 0.05322616667, 0.008119677057
7327, 0.05087796399, 0.05327660623, 0.008119677057
7328, 0.05070527645, 0.05331806484, 0.008119677057
7329, 0.0505306558, 0.05335042887, 0.008119677057
7330, 0.05035458066, 0.0533736096, 0.008119677057
7331, 0.05017753363, 0.0533875435, 0.008119677057
7332, 0.05, 0.05339219238, 0.008119677057
7333, 0.04982246637, 0.0533875435, 0.008119677057
7334, 0.04964541934, 0.0533736096, 0.008119677057
7335, 0.0494693442, 0.05335042887, 0.008119677057
7336, 0.04929472355, 0.05331806484, 0.008119677057
7337, 0.04912203601, 0.05327660623, 0.008119677057
7338, 0.0489517549, 0.05322616667, 0.008119677057
7339, 0.04878434697, 0.05316688441, 0.008119677057
7340, 0.04862027106, 0.05309892194, 0.008119677057
7341, 0.04845997688, 0.05302246555, 0.008119677057
7342, 0.04830390381, 0.05293772478, 0.008119677057
7343, 0.04815247961, 0.05284493191, 0.008119677057
7344, 0.04800611934, 0.05274434129, 0.008119677057
7345, 0.04786522416, 0.05263622861, 0.008119677057
7346, 0.04773018025, 0.05252089022, 0.008119677057
7347, 0.04760135776, 0.05239864224, 0.008119677057
7348, 0.04747910978, 0.05226981975, 0.008119677057
7349, 0.04736377139, 0.05213477584, 0.008119677057
7350, 0.04725565871, 0.05199388066, 0.008119677057
7351, 0.04715506809, 0.05184752039, 0.008119677057
7352, 0.04706227522, 0.05169609619, 0.008119677057
7353, 0.04697753445, 0.05154002312, 0.008119677057
7354, 0.04690107806, 0.05137972894, 0.008119677057
7355, 0.04683311559, 0.05121565303, 0.008119677057
7356, 0.04677383333, 0.0510482451, 0.008119677057
7357, 0.04672339377, 0.05087796399, 0.008119677057
7358, 0.04668193516, 0.05070527645, 0.008119677057
7359, 0.04664957113, 0.0505306558, 0.008119677057
7360, 0.0466263904, 0.05035458066, 0.008119677057
7361, 0.0466124565, 0.05017753363, 0.008119677057
7362, 0.04660780762, 0.05, 0.008119677057
7363, 0.0466124565, 0.04982246637, 0.008119677057
7364, 0.0466263904, 0.04964541934, 0.008119677057
7365, 0.04664957113, 0.0494693442, 0.008119677057
7366, 0.04668193516, 0.04929472355, 0.008119677057
7367, 0.04672339377, 0.04912203601, 0.008119677057
7368, 0.04677383333, 0.0489517549, 0.008119677057
7369, 0.04683311559, 0.04878434697, 0.008119677057
7370, 0.04690107806, 0.04862027106, 0.008119677057
7371, 0.04697753445, 0.04845997688, 0.008119677057
7372, 0.04706227522, 0.04830390381, 0.008119677057
7373, 0.04715506809, 0.04815247961, 0.008119677057
7374, 0.04725565871, 0.04800611934, 0.008119677057
7375, 0.04736377139, 0.04786522416, 0.008119677057
7376, 0.04747910978, 0.04773018025, 0.008119677057
7377, 0.04760135776, 0.04760135776, 0.008119677057
7378, 0.04773018025, 0.04747910978, 0.008119677057
7379, 0.04786522416, 0.04736377139, 0.008119677057
7380, 0.04800611934, 0.04725565871, 0.008119677057
7381, 0.04815247961, 0.04715506809, 0.008119677057
7382, 0.04830390381, 0.04706227522, 0.008119677057
7383, 0.04845997688, 0.04697753445, 0.008119677057
7384, 0.04862027106, 0.04690107806, 0.008119677057
7385, 0.04878434697, 0.04683311559, 0.008119677057
7386, 0.0489517549, 0.04677383333, 0.008119677057
7387, 0.04912203601, 0.04672339377, 0.008119677057
7388, 0.04929472355, 0.04668193516, 0.008119677057
7389, 0.0494693442, 0.04664957113, 0.008119677057
7390, 0.04964541934, 0.0466263904, 0.008119677057
7391, 0.04982246637, 0.0466124565, 0.008119677057
7392, 0.05, 0.04660780762, 0.008119677057
7393, 0.05017753363, 0.0466124565, 0.008119677057
7394, 0.05035458066, 0.0466263904, 0.008119677057
7395, 0.0505306558, 0.04664957113, 0.008119677057
7396, 0.05070527645, 0.04668193516, 0.008119677057
7397, 0.05087796399, 0.04672339377, 0.008119677057
7398, 0.0510482451, 0.04677383333, 0.008119677057
7399, 0.05121565303, 0.04683311559, 0.008119677057
7400, 0.05137972894, 0.04690107806, 0.008119677057
7401, 0.05154002312, 0.04697753445, 0.008119677057
7402, 0.05169609619, 0.04706227522, 0.008119677057
7403, 0.05184752039, 0.04715506809, 0.008119677057
7404, 0.05199388066, 0.04725565871, 0.008119677057
7405, 0.05213477584, 0.04736377139, 0.008119677057
7406, 0.05226981975, 0.04747910978, 0.008119677057
7407, 0.05239864224, 0.04760135776, 0.008119677057
7408, 0.05252089022, 0.04773018025, 0.008119677057
7409, 0.05263622861, 0.04786522416, 0.008119677057
7410, 0.05274434129, 0.04800611934, 0.008119677057
7411, 0.05284493191, 0.04815247961, 0.008119677057
7412, 0.05293772478, 0.04830390381, 0.008119677057
7413, 0.05302246555, 0.04845997688, 0.008119677057
7414, 0.05309892194, 0.04862027106, 0.008119677057
7415, 0.05316688441, 0.04878434697, 0.008119677057
7416, 0.05322616667, 0.0489517549, 0.008119677057
7417, 0.05327660623, 0.04912203601, 0.008119677057
7418, 0.05331806484, 0.04929472355, 0.008119677057
7419, 0.05335042887, 0.0494693442, 0.008119677057
7420, 0.0533736096, 0.04964541934, 0.008119677057
7421, 0.0533875435, 0.04982246637, 0.008119677057
7422, 0.05331615029, 0.05, 0.008236771614
7423, 0.05331160562, 0.0501735539, 0.008236771614
7424, 0.05329798407, 0.05034663209, 0.008236771614
7425, 0.05327532298, 0.0505187602, 0.008236771614
7426, 0.05324368445, 0.05068946641, 0.008236771614
7427, 0.05320315521, 0.05085828285, 0.008236771614
7428, 0.05315384634, 0.0510247468, 0.008236771614
7429, 0.053095893, 0.05118840198, 0.008236771614
7430, 0.05302945403, 0.05134879984, 0.008236771614
7431, 0.05295471154, 0.05150550073, 0.008236771614
7432, 0.05287187039, 0.05165807515, 0.008236771614
7433, 0.05278115765, 0.05180610489, 0.008236771614
7434, 0.05268282194, 0.05194918423, 0.008236771614
7435, 0.05257713281, 0.052086921, 0.008236771614
7436, 0.05246437993, 0.05221893765, 0.008236771614
7437, 0.05234487236, 0.05234487236, 0.008236771614
7438, 0.05221893765, 0.05246437993, 0.008236771614
7439, 0.052086921, 0.05257713281, 0.008236771614
7440, 0.05194918423, 0.05268282194, 0.008236771614
7441, 0.05180610489, 0.05278115765, 0.008236771614
7442, 0.05165807515, 0.05287187039, 0.008236771614
7443, 0.05150550073, 0.05295471154, 0.008236771614
7444, 0.05134879984, 0.05302945403, 0.008236771614
7445, 0.05118840198, 0.053095893, 0.008236771614
7446, 0.0510247468, 0.05315384634, 0.008236771614
7447, 0.05085828285, 0.05320315521, 0.008236771614
7448, 0.05068946641, 0.05324368445, 0.008236771614
7449, 0.0505187602, 0.05327532298, 0.008236771614
7450, 0.05034663209, 0.05329798407, 0.008236771614
7451, 0.0501735539, 0.05331160562, 0.008236771614
7452, 0.05, 0.05331615029, 0.008236771614
7453, 0.0498264461, 0.05331160562, 0.008236771614
7454, 0.04965336791, 0.05329798407, 0.008236771614
7455, 0.0494812398, 0.05327532298, 0.008236771614
7456, 0.04931053359, 0.05324368445, 0.008236771614
7457, 0.04914171715, 0.05320315521, 0.008236771614
7458, 0.0489752532, 0.05315384634, 0.008236771614
7459, 0.04881159802, 0.053095893, 0.008236771614
7460, 0.04865120016, 0.05302945403, 0.008236771614
7461, 0.04849449927, 0.05295471154, 0.008236771614
7462, 0.04834192485, 0.05287187039, 0.008236771614
7463, 0.04819389511, 0.05278115765, 0.008236771614
7464, 0.04805081577, 0.05268282194, 0.008236771614
7465, 0.047913079, 0.05257713281, 0.008236771614
7466, 0.04778106235, 0.05246437993, 0.008236771614
7467, 0.04765512764, 0.05234487236, 0.008236771614
7468, 0.04753562007, 0.05221893765, 0.008236771614
7469, 0.04742286719, 0.052086921, 0.008236771614
7470, 0.04731717806, 0.05194918423, 0.008236771614
7471, 0.04721884235, 0.05180610489, 0.008236771614
7472, 0.04712812961, 0.05165807515, 0.008236771614
7473, 0.04704528846, 0.05150550073, 0.008236771614
7474, 0.04697054597, 0.05134879984, 0.008236771614
7475, 0.046904107, 0.05118840198, 0.008236771614
7476, 0.04684615366, 0.0510247468, 0.008236771614
7477, 0.04679684479, 0.05085828285, 0.008236771614
7478, 0.04675631555, 0.05068946641, 0.008236771614
7479, 0.04672467702, 0.0505187602, 0.008236771614
7480, 0.04670201593, 0.05034663209, 0.008236771614
7481, 0.04668839438, 0.0501735539, 0.008236771614
7482, 0.04668384971, 0.05, 0.008236771614
7483, 0.04668839438, 0.0498264461, 0.008236771614
7484, 0.04670201593, 0.04965336791, 0.008236771614
7485, 0.04672467702, 0.0494812398, 0.008236771614
7486, 0.04675631555, 0.04931053359, 0.008236771614
7487, 0.04679684479, 0.04914171715, 0.008236771614
7488, 0.04684615366, 0.0489752532, 0.008236771614
7489, 0.046904107, 0.04881159802, 0.008236771614
7490, 0.04697054597, 0.04865120016, 0.008236771614
7491, 0.04704528846, 0.04849449927, 0.008236771614
7492, 0.04712812961, 0.04834192485, 0.008236771614
7493, 0.04721884235, 0.04819389511, 0.008236771614
7494, 0.04731717806, 0.04805081577, 0.008236771614
7495, 0.04742286719, 0.047913079, 0.008236771614
7496, 0.04753562007, 0.04778106235, 0.008236771614
7497, 0.04765512764, 0.04765512764, 0.008236771614
7498, 0.04778106235, 0.04753562007, 0.008236771614
7499, 0.047913079, 0.04742286719, 0.008236771614
7500, 0.04805081577, 0.04731717806, 0.008236771614
7501, 0.04819389511, 0.04721884235, 0.008236771614
7502, 0.04834192485, 0.04712812961, 0.008236771614
7503, 0.04849449927, 0.04704528846, 0.008236771614
7504, 0.04865120016, 0.04697054597, 0.008236771614
7505, 0.04881159802, 0.046904107, 0.008236771614
7506, 0.0489752532, 0.04684615366, 0.008236771614
7507, 0.04914171715, 0.04679684479, 0.008236771614
7508, 0.04931053359, 0.04675631555, 0.008236771614
7509, 0.0494812398, 0.04672467702, 0.008236771614
7510, 0.04965336791, 0.04670201593, 0.008236771614
7511, 0.0498264461, 0.04668839438, 0.008236771614
7512, 0.05, 0.04668384971, 0.008236771614
7513, 0.0501735539, 0.04668839438, 0.008236771614
7514, 0.05034663209, 0.04670201593, 0.008236771614
7515, 0.0505187602, 0.04672467702, 0.008236771614
7516, 0.05068946641, 0.04675631555, 0.008236771614
7517, 0.05085828285, 0.04679684479, 0.008236771614
7518, 0.0510247468, 0.04684615366, 0.008236771614
7519, 0.05118840198, 0.046904107, 0.008236771614
7520, 0.05134879984, 0.04697054597, 0.008236771614
7521, 0.05150550073, 0.04704528846, 0.008236771614
7522, 0.05165807515, 0.04712812961, 0.008236771614
7523, 0.05180610489, 0.04721884235, 0.008236771614
7524, 0.05194918423, 0.04731717806, 0.008236771614
7525, 0.052086921, 0.04742286719, 0.008236771614
7526, 0.05221893765, 0.04753562007, 0.008236771614
7527, 0.05234487236, 0.04765512764, 0.008236771614
7528, 0.05246437993, 0.04778106235, 0.008236771614
7529, 0.05257713281, 0.047913079, 0.008236771614
7530, 0.05268282194, 0.04805081577, 0.008236771614
7531, 0.05278115765, 0.04819389511, 0.008236771614
7532, 0.05287187039, 0.04834192485, 0.008236771614
7533, 0.05295471154, 0.04849449927, 0.008236771614
7534, 0.05302945403, 0.04865120016, 0.008236771614
7535, 0.053095893, 0.04881159802, 0.008236771614
7536, 0.05315384634, 0.0489752532, 0.008236771614
7537, 0.05320315521, 0.04914171715, 0.008236771614
7538, 0.05324368445, 0.04931053359, 0.008236771614
7539, 0.05327532298, 0.0494812398, 0.008236771614
7540, 0.05329798407, 0.04965336791, 0.008236771614
7541, 0.05331160562, 0.0498264461, 0.008236771614
7542, 0.05323606798, 0.05, 0.008351141009
7543, 0.05323163306, 0.05016936271, 0.008351141009
7544, 0.05321834046, 0.05033826121, 0.008351141009
7545, 0.05319622661, 0.05050623256, 0.008351141009
7546, 0.05316535213, 0.05067281636, 0.008351141009
7547, 0.05312580164, 0.05083755602, 0.008351141009
7548, 0.05307768354, 0.051, 0.008351141009
7549, 0.05302112972, 0.05115970305, 0.008351141009
7550, 0.0529562952, 0.05131622743, 0.008351141009
7551, 0.05288335768, 0.05146914412, 0.008351141009
7552, 0.05280251708, 0.05161803399, 0.008351141009
7553, 0.05271399497, 0.05176248894, 0.008351141009
7554, 0.05261803399, 0.05190211303, 0.008351141009
7555, 0.05251489716, 0.05203652357, 0.008351141009
7556, 0.05240486717, 0.05216535213, 0.008351141009
7557, 0.05228824561, 0.05228824561, 0.008351141009
7558, 0.05216535213, 0.05240486717, 0.008351141009
7559, 0.05203652357, 0.05251489716, 0.008351141009
7560, 0.05190211303, 0.05261803399, 0.008351141009
7561, 0.05176248894, 0.05271399497, 0.008351141009
7562, 0.05161803399, 0.05280251708, 0.008351141009
7563, 0.05146914412, 0.05288335768, 0.008351141009
7564, 0.05131622743, 0.0529562952, 0.008351141009
7565, 0.05115970305, 0.05302112972, 0.008351141009
7566, 0.051, 0.05307768354, 0.008351141009
7567, 0.05083755602, 0.05312580164, 0.008351141009
7568, 0.05067281636, 0.05316535213, 0.008351141009
7569, 0.05050623256, 0.05319622661, 0.008351141009
7570, 0.05033826121, 0.05321834046, 0.008351141009
7571, 0.05016936271, 0.05323163306, 0.008351141009
7572, 0.05, 0.05323606798, 0.008351141009
7573, 0.04983063729, 0.05323163306, 0.008351141009
7574, 0.04966173879, 0.05321834046, 0.008351141009
7575, 0.04949376744, 0.05319622661, 0.008351141009
7576, 0.04932718364, 0.05316535213, 0.008351141009
7577, 0.04916244398, 0.05312580164, 0.008351141009
7578, 0.049, 0.05307768354, 0.008351141009
7579, 0.04884029695, 0.05302112972, 0.008351141009
7580, 0.04868377257, 0.0529562952, 0.008351141009
7581, 0.04853085588, 0.05288335768, 0.008351141009
7582, 0.04838196601, 0.05280251708, 0.008351141009
7583, 0.04823751106, 0.05271399497, 0.008351141009
7584, 0.04809788697, 0.05261803399, 0.008351141009
7585, 0.04796347643, 0.05251489716, 0.008351141009
7586, 0.04783464787, 0.05240486717, 0.008351141009
7587, 0.04771175439, 0.05228824561, 0.008351141009
7588, 0.04759513283, 0.05216535213, 0.008351141009
7589, 0.04748510284, 0.05203652357, 0.008351141009
7590, 0.04738196601, 0.05190211303, 0.008351141009
7591, 0.04728600503, 0.05176248894, 0.008351141009
7592, 0.04719748292, 0.05161803399, 0.008351141009
7593, 0.04711664232, 0.05146914412, 0.008351141009
7594, 0.0470437048, 0.05131622743, 0.008351141009
7595, 0.04697887028, 0.05115970305, 0.008351141009
7596, 0.04692231646, 0.051, 0.008351141009
7597, 0.04687419836, 0.05083755602, 0.008351141009
7598, 0.04683464787, 0.05067281636, 0.008351141009
7599, 0.04680377339, 0.05050623256, 0.008351141009
7600, 0.04678165954, 0.05033826121, 0.008351141009
7601, 0.04676836694, 0.05016936271, 0.008351141009
7602, 0.04676393202, 0.05, 0.008351141009
7603, 0.04676836694, 0.04983063729, 0.008351141009
7604, 0.04678165954, 0.04966173879, 0.008351141009
7605, 0.04680377339, 0.04949376744, 0.008351141009
7606, 0.04683464787, 0.04932718364, 0.008351141009
7607, 0.04687419836, 0.04916244398, 0.008351141009
7608, 0.04692231646, 0.049, 0.008351141009
7609, 0.04697887028, 0.04884029695, 0.008351141009
7610, 0.0470437048, 0.04868377257, 0.008351141009
7611, 0.04711664232, 0.04853085588, 0.008351141009
7612, 0.04719748292, 0.04838196601, 0.008351141009
7613, 0.04728600503, 0.04823751106, 0.008351141009
7614, 0.04738196601, 0.04809788697, 0.008351141009
7615, 0.04748510284, 0.04796347643, 0.008351141009
7616, 0.04759513283, 0.04783464787, 0.008351141009
7617, 0.04771175439, 0.04771175439, 0.008351141009
7618, 0.04783464787, 0.04759513283, 0.008351141009
7619, 0.04796347643, 0.04748510284, 0.008351141009
7620, 0.04809788697, 0.04738196601, 0.008351141009
7621, 0.04823751106, 0.04728600503, 0.008351141009
7622, 0.04838196601, 0.04719748292, 0.008351141009
7623, 0.04853085588, 0.04711664232, 0.008351141009
7624, 0.04868377257, 0.0470437048, 0.008351141009
7625, 0.04884029695, 0.04697887028, 0.008351141009
7626, 0.049, 0.04692231646, 0.008351141009
7627, 0.04916244398, 0.04687419836, 0.008351141009
7628, 0.04932718364, 0.04683464787, 0.008351141009
7629, 0.04949376744, 0.04680377339, 0.008351141009
7630, 0.04966173879, 0.04678165954, 0.008351141009
7631, 0.04983063729, 0.04676836694, 0.008351141009
7632, 0.05, 0.04676393202, 0.008351141009
7633, 0.05016936271, 0.04676836694, 0.008351141009
7634, 0.05033826121, 0.04678165954, 0.008351141009
7635, 0.05050623256, 0.04680377339, 0.008351141009
7636, 0.05067281636, 0.04683464787, 0.008351141009
7637, 0.05083755602, 0.04687419836, 0.008351141009
7638, 0.051, 0.04692231646, 0.008351141009
7639, 0.05115970305, 0.04697887028, 0.008351141009
7640, 0.05131622743, 0.0470437048, 0.008351141009
7641, 0.05146914412, 0.04711664232, 0.008351141009
7642, 0.05161803399, 0.04719748292, 0.008351141009
7643, 0.05176248894, 0.04728600503, 0.008351141009
7644, 0.05190211303, 0.04738196601, 0.008351141009
7645, 0.05203652357, 0.04748510284, 0.008351141009
7646, 0.05216535213, 0.04759513283, 0.008351141009
7647, 0.05228824561, 0.04771175439, 0.008351141009
7648, 0.05240486717, 0.04783464787, 0.008351141009
7649, 0.05251489716, 0.04796347643, 0.008351141009
7650, 0.05261803399, 0.04809788697, 0.008351141009
7651, 0.05271399497, 0.04823751106, 0.008351141009
7652, 0.05280251708, 0.04838196601, 0.008351141009
7653, 0.05288335768, 0.04853085588, 0.008351141009
7654, 0.0529562952, 0.04868377257, 0.008351141009
7655, 0.05302112972, 0.04884029695, 0.008351141009
7656, 0.05307768354, 0.049, 0.008351141009
7657, 0.05312580164, 0.04916244398, 0.008351141009
7658, 0.05316535213, 0.04932718364, 0.008351141009
7659, 0.05319622661, 0.04949376744, 0.008351141009
7660, 0.05321834046, 0.04966173879, 0.008351141009
7661, 0.05323163306, 0.04983063729, 0.008351141009
7662, 0.05315204301, 0.05, 0.008462645901
7663, 0.05314772325, 0.05016496519, 0.008462645901
7664, 0.05313477579, 0.05032947821, 0.008462645901
7665, 0.05311323613, 0.05049308816, 0.008462645901
7666, 0.05308316331, 0.05065534659, 0.008462645901
7667, 0.05304463975, 0.05081580876, 0.008462645901
7668, 0.05299777105, 0.05097403486, 0.008462645901
7669, 0.05294268566, 0.05112959119, 0.008462645901
7670, 0.05287953458, 0.05128205139, 0.008462645901
7671, 0.05280849089, 0.05143099758, 0.008462645901
7672, 0.05272974932, 0.05157602151, 0.008462645901
7673, 0.05264352571, 0.05171672567, 0.008462645901
7674, 0.05255005637, 0.0518527244, 0.008462645901
7675, 0.0524495975, 0.05198364494, 0.008462645901
7676, 0.05234242446, 0.05210912845, 0.008462645901
7677, 0.05222883099, 0.05222883099, 0.008462645901
7678, 0.05210912845, 0.05234242446, 0.008462645901
7679, 0.05198364494, 0.0524495975, 0.008462645901
7680, 0.0518527244, 0.05255005637, 0.008462645901
7681, 0.05171672567, 0.05264352571, 0.008462645901
7682, 0.05157602151, 0.05272974932, 0.008462645901
7683, 0.05143099758, 0.05280849089, 0.008462645901
7684, 0.05128205139, 0.05287953458, 0.008462645901
7685, 0.05112959119, 0.05294268566, 0.008462645901
7686, 0.05097403486, 0.05299777105, 0.008462645901
7687, 0.05081580876, 0.05304463975, 0.008462645901
7688, 0.05065534659, 0.05308316331, 0.008462645901
7689, 0.05049308816, 0.05311323613, 0.008462645901
7690, 0.05032947821, 0.05313477579, 0.008462645901
7691, 0.05016496519, 0.05314772325, 0.008462645901
7692, 0.05, 0.05315204301, 0.008462645901
7693, 0.04983503481, 0.05314772325, 0.008462645901
7694, 0.04967052179, 0.05313477579, 0.008462645901
7695, 0.04950691184, 0.05311323613, 0.008462645901
7696, 0.04934465341, 0.05308316331, 0.008462645901
7697, 0.04918419124, 0.05304463975, 0.008462645901
7698, 0.04902596514, 0.05299777105, 0.008462645901
7699, 0.04887040881, 0.05294268566, 0.008462645901
7700, 0.04871794861, 0.05287953458, 0.008462645901
7701, 0.04856900242, 0.05280849089, 0.008462645901
7702, 0.04842397849, 0.05272974932, 0.008462645901
7703, 0.04828327433, 0.05264352571, 0.008462645901
7704, 0.0481472756, 0.05255005637, 0.008462645901
7705, 0.04801635506, 0.0524495975, 0.008462645901
7706, 0.04789087155, 0.05234242446, 0.008462645901
7707, 0.04777116901, 0.05222883099, 0.008462645901
7708, 0.04765757554, 0.05210912845, 0.008462645901
7709, 0.0475504025, 0.05198364494, 0.008462645901
7710, 0.04744994363, 0.0518527244, 0.008462645901
7711, 0.04735647429, 0.05171672567, 0.008462645901
7712, 0.04727025068, 0.05157602151, 0.008462645901
7713, 0.04719150911, 0.05143099758, 0.008462645901
7714, 0.04712046542, 0.05128205139, 0.008462645901
7715, 0.04705731434, 0.05112959119, 0.008462645901
7716, 0.04700222895, 0.05097403486, 0.008462645901
7717, 0.04695536025, 0.05081580876, 0.008462645901
7718, 0.04691683669, 0.05065534659, 0.008462645901
7719, 0.04688676387, 0.05049308816, 0.008462645901
7720, 0.04686522421, 0.05032947821, 0.008462645901
7721, 0.04685227675, 0.05016496519, 0.008462645901
7722, 0.04684795699, 0.05, 0.008462645901
7723, 0.04685227675, 0.04983503481, 0.008462645901
7724, 0.04686522421, 0.04967052179, 0.008462645901
7725, 0.04688676387, 0.04950691184, 0.008462645901
7726, 0.04691683669, 0.04934465341, 0.008462645901
7727, 0.04695536025, 0.04918419124, 0.008462645901
7728, 0.04700222895, 0.04902596514, 0.008462645901
7729, 0.04705731434, 0.04887040881, 0.008462645901
7730, 0.04712046542, 0.04871794861, 0.008462645901
7731, 0.04719150911, 0.04856900242, 0.008462645901
7732, 0.04727025068, 0.04842397849, 0.008462645901
7733, 0.04735647429, 0.04828327433, 0.008462645901
7734, 0.04744994363, 0.0481472756, 0.008462645901
7735, 0.0475504025, 0.04801635506, 0.008462645901
7736, 0.04765757554, 0.04789087155, 0.008462645901
7737, 0.04777116901, 0.04777116901, 0.008462645901
7738, 0.04789087155, 0.04765757554, 0.008462645901
7739, 0.04801635506, 0.0475504025, 0.008462645901
7740, 0.0481472756, 0.04744994363, 0.008462645901
7741, 0.04828327433, 0.04735647429, 0.008462645901
7742, 0.04842397849, 0.04727025068, 0.008462645901
7743, 0.04856900242, 0.04719150911, 0.008462645901
7744, 0.04871794861, 0.04712046542, 0.008462645901
7745, 0.04887040881, 0.04705731434, 0.008462645901
7746, 0.04902596514, 0.04700222895, 0.008462645901
7747, 0.04918419124, 0.04695536025, 0.008462645901
7748, 0.04934465341, 0.04691683669, 0.008462645901
7749, 0.04950691184, 0.04688676387, 0.008462645901
7750, 0.04967052179, 0.04686522421, 0.008462645901
7751, 0.04983503481, 0.04685227675, 0.008462645901
7752, 0.05, 0.04684795699, 0.008462645901
7753, 0.05016496519, 0.04685227675, 0.008462645901
7754, 0.05032947821, 0.04686522421, 0.008462645901
7755, 0.05049308816, 0.04688676387, 0.008462645901
7756, 0.05065534659, 0.04691683669, 0.008462645901
7757, 0.05081580876, 0.04695536025, 0.008462645901
7758, 0.05097403486, 0.04700222895, 0.008462645901
7759, 0.05112959119, 0.04705731434, 0.008462645901
7760, 0.05128205139, 0.04712046542, 0.008462645901
7761, 0.05143099758, 0.04719150911, 0.008462645901
7762, 0.05157602151, 0.04727025068, 0.008462645901
7763, 0.05171672567, 0.04735647429, 0.008462645901
7764, 0.0518527244, 0.04744994363, 0.008462645901
7765, 0.05198364494, 0.0475504025, 0.008462645901
7766, 0.05210912845, 0.04765757554, 0.008462645901
7767, 0.05222883099, 0.04777116901, 0.008462645901
7768, 0.05234242446, 0.04789087155, 0.008462645901
7769, 0.0524495975, 0.04801635506, 0.008462645901
7770, 0.05255005637, 0.0481472756, 0.008462645901
7771, 0.05264352571, 0.04828327433, 0.008462645901
7772, 0.05272974932, 0.04842397849, 0.008462645901
7773, 0.05280849089, 0.04856900242, 0.008462645901
7774, 0.05287953458, 0.04871794861, 0.008462645901
7775, 0.05294268566, 0.04887040881, 0.008462645901
7776, 0.05299777105, 0.04902596514, 0.008462645901
7777, 0.05304463975, 0.04918419124, 0.008462645901
7778, 0.05308316331, 0.04934465341, 0.008462645901
7779, 0.05311323613, 0.04950691184, 0.008462645901
7780, 0.05313477579, 0.04967052179, 0.008462645901
7781, 0.05314772325, 0.04983503481, 0.008462645901
7782, 0.05306417777, 0.05, 0.008571150439
7783, 0.05305997842, 0.05016036667, 0.008571150439
7784, 0.05304739189, 0.05032029379, 0.008571150439
7785, 0.05302645266, 0.05047934301, 0.008571150439
7786, 0.05299721814, 0.05063707838, 0.008571150439
7787, 0.05295976845, 0.05079306757, 0.008571150439
7788, 0.05291420624, 0.05094688301, 0.008571150439
7789, 0.05286065639, 0.05109810311, 0.008571150439
7790, 0.05279926569, 0.05124631338, 0.008571150439
7791, 0.05273020239, 0.0513911076, 0.008571150439
7792, 0.05265365579, 0.05153208889, 0.008571150439
7793, 0.05256983571, 0.05166887083, 0.008571150439
7794, 0.05247897189, 0.05180107851, 0.008571150439
7795, 0.05238131338, 0.05192834955, 0.008571150439
7796, 0.05227712786, 0.05205033513, 0.008571150439
7797, 0.05216670088, 0.05216670088, 0.008571150439
7798, 0.05205033513, 0.05227712786, 0.008571150439
7799, 0.05192834955, 0.05238131338, 0.008571150439
7800, 0.05180107851, 0.05247897189, 0.008571150439
7801, 0.05166887083, 0.05256983571, 0.008571150439
7802, 0.05153208889, 0.05265365579, 0.008571150439
7803, 0.0513911076, 0.05273020239, 0.008571150439
7804, 0.05124631338, 0.05279926569, 0.008571150439
7805, 0.05109810311, 0.05286065639, 0.008571150439
7806, 0.05094688301, 0.05291420624, 0.008571150439
7807, 0.05079306757, 0.05295976845, 0.008571150439
7808, 0.05063707838, 0.05299721814, 0.008571150439
7809, 0.05047934301, 0.05302645266, 0.008571150439
7810, 0.05032029379, 0.05304739189, 0.008571150439
7811, 0.05016036667, 0.05305997842, 0.008571150439
7812, 0.05, 0.05306417777, 0.008571150439
7813, 0.04983963333, 0.05305997842, 0.008571150439
7814, 0.04967970621, 0.05304739189, 0.008571150439
7815, 0.04952065699, 0.05302645266, 0.008571150439
7816, 0.04936292162, 0.05299721814, 0.008571150439
7817, 0.04920693243, 0.05295976845, 0.008571150439
7818, 0.04905311699, 0.05291420624, 0.008571150439
7819, 0.04890189689, 0.05286065639, 0.008571150439
7820, 0.04875368662, 0.05279926569, 0.008571150439
7821, 0.0486088924, 0.05273020239, 0.008571150439
7822, 0.04846791111, 0.05265365579, 0.008571150439
7823, 0.04833112917, 0.05256983571, 0.008571150439
7824, 0.04819892149, 0.05247897189, 0.008571150439
7825, 0.04807165045, 0.05238131338, 0.008571150439
7826, 0.04794966487, 0.05227712786, 0.008571150439
7827, 0.04783329912, 0.05216670088, 0.008571150439
7828, 0.04772287214, 0.05205033513, 0.008571150439
7829, 0.04761868662, 0.05192834955, 0.008571150439
7830, 0.04752102811, 0.05180107851, 0.008571150439
7831, 0.04743016429, 0.05166887083, 0.008571150439
7832, 0.04734634421, 0.05153208889, 0.008571150439
7833, 0.04726979761, 0.0513911076, 0.008571150439
7834, 0.04720073431, 0.05124631338, 0.008571150439
7835, 0.04713934361, 0.05109810311, 0.008571150439
7836, 0.04708579376, 0.05094688301, 0.008571150439
7837, 0.04704023155, 0.05079306757, 0.008571150439
7838, 0.04700278186, 0.05063707838, 0.008571150439
7839, 0.04697354734, 0.05047934301, 0.008571150439
7840, 0.04695260811, 0.05032029379, 0.008571150439
7841, 0.04694002158, 0.05016036667, 0.008571150439
7842, 0.04693582223, 0.05, 0.008571150439
7843, 0.04694002158, 0.04983963333, 0.008571150439
7844, 0.04695260811, 0.04967970621, 0.008571150439
7845, 0.04697354734, 0.04952065699, 0.008571150439
7846, 0.04700278186, 0.04936292162, 0.008571150439
7847, 0.04704023155, 0.04920693243, 0.008571150439
7848, 0.04708579376, 0.04905311699, 0.008571150439
7849, 0.04713934361, 0.04890189689, 0.008571150439
7850, 0.04720073431, 0.04875368662, 0.008571150439
7851, 0.04726979761, 0.0486088924, 0.008571150439
7852, 0.04734634421, 0.04846791111, 0.008571150439
7853, 0.04743016429, 0.04833112917, 0.008571150439
7854, 0.04752102811, 0.04819892149, 0.008571150439
7855, 0.04761868662, 0.04807165045, 0.008571150439
7856, 0.04772287214, 0.04794966487, 0.008571150439
7857, 0.04783329912, 0.04783329912, 0.008571150439
7858, 0.04794966487, 0.04772287214, 0.008571150439
7859, 0.04807165045, 0.04761868662, 0.008571150439
7860, 0.04819892149, 0.04752102811, 0.008571150439
7861, 0.04833112917, 0.04743016429, 0.008571150439
7862, 0.04846791111, 0.04734634421, 0.008571150439
7863, 0.0486088924, 0.04726979761, 0.008571150439
7864, 0.04875368662, 0.04720073431, 0.008571150439
7865, 0.04890189689, 0.04713934361, 0.008571150439
7866, 0.04905311699, 0.04708579376, 0.008571150439
7867, 0.04920693243, 0.04704023155, 0.008571150439
7868, 0.04936292162, 0.04700278186, 0.008571150439
7869, 0.04952065699, 0.04697354734, 0.008571150439
7870, 0.04967970621, 0.04695260811, 0.008571150439
7871, 0.04983963333, 0.04694002158, 0.008571150439
7872, 0.05, 0.04693582223, 0.008571150439
7873, 0.05016036667, 0.04694002158, 0.008571150439
7874, 0.05032029379, 0.04695260811, 0.008571150439
7875, 0.05047934301, 0.04697354734, 0.008571150439
7876, 0.05063707838, 0.04700278186, 0.008571150439
7877, 0.05079306757, 0.04704023155, 0.008571150439
7878, 0.05094688301, 0.04708579376, 0.008571150439
7879, 0.05109810311, 0.04713934361, 0.008571150439
7880, 0.05124631338, 0.04720073431, 0.008571150439
7881, 0.0513911076, 0.04726979761, 0.008571150439
7882, 0.05153208889, 0.04734634421, 0.008571150439
7883, 0.05166887083, 0.04743016429, 0.008571150439
7884, 0.05180107851, 0.04752102811, 0.008571150439
7885, 0.05192834955, 0.04761868662, 0.008571150439
7886, 0.05205033513, 0.04772287214, 0.008571150439
7887, 0.05216670088, 0.04783329912, 0.008571150439
7888, 0.05227712786, 0.04794966487, 0.008571150439
7889, 0.05238131338, 0.04807165045, 0.008571150439
7890, 0.05247897189, 0.04819892149, 0.008571150439
7891, 0.05256983571, 0.04833112917, 0.008571150439
7892, 0.05265365579, 0.04846791111, 0.008571150439
7893, 0.05273020239, 0.0486088924, 0.008571150439
7894, 0.05279926569, 0.04875368662, 0.008571150439
7895, 0.05286065639, 0.04890189689, 0.008571150439
7896, 0.05291420624, 0.04905311699, 0.008571150439
7897, 0.05295976845, 0.04920693243, 0.008571150439
7898, 0.05299721814, 0.04936292162, 0.008571150439
7899, 0.05302645266, 0.04952065699, 0.008571150439
7900, 0.05304739189, 0.04967970621, 0.008571150439
7901, 0.05305997842, 0.04983963333, 0.008571150439
7902, 0.0529725793, 0.05, 0.008676522425
7903, 0.05296850549, 0.05015557278, 0.008676522425
7904, 0.0529562952, 0.05031071915, 0.008676522425
7905, 0.05293598192, 0.05046501385, 0.008676522425
7906, 0.05290762131, 0.05061803399, 0.008676522425
7907, 0.05287129112, 0.05076936014, 0.008676522425
7908, 0.05282709092, 0.05091857752, 0.008676522425
7909, 0.05277514185, 0.05106527715, 0.008676522425
7910, 0.05271558632, 0.05120905693, 0.008676522425
7911, 0.05264858755, 0.05134952276, 0.008676522425
7912, 0.05257432919, 0.05148628965, 0.008676522425
7913, 0.05249301477, 0.05161898272, 0.008676522425
7914, 0.05240486717, 0.05174723827, 0.008676522425
7915, 0.052310128, 0.05187070477, 0.008676522425
7916, 0.05220905693, 0.05198904379, 0.008676522425
7917, 0.05210193098, 0.05210193098, 0.008676522425
7918, 0.05198904379, 0.05220905693, 0.008676522425
7919, 0.05187070477, 0.052310128, 0.008676522425
7920, 0.05174723827, 0.05240486717, 0.008676522425
7921, 0.05161898272, 0.05249301477, 0.008676522425
7922, 0.05148628965, 0.05257432919, 0.008676522425
7923, 0.05134952276, 0.05264858755, 0.008676522425
7924, 0.05120905693, 0.05271558632, 0.008676522425
7925, 0.05106527715, 0.05277514185, 0.008676522425
7926, 0.05091857752, 0.05282709092, 0.008676522425
7927, 0.05076936014, 0.05287129112, 0.008676522425
7928, 0.05061803399, 0.05290762131, 0.008676522425
7929, 0.05046501385, 0.05293598192, 0.008676522425
7930, 0.05031071915, 0.0529562952, 0.008676522425
7931, 0.05015557278, 0.05296850549, 0.008676522425
7932, 0.05, 0.0529725793, 0.008676522425
7933, 0.04984442722, 0.05296850549, 0.008676522425
7934, 0.04968928085, 0.0529562952, 0.008676522425
7935, 0.04953498615, 0.05293598192, 0.008676522425
7936, 0.04938196601, 0.05290762131, 0.008676522425
7937, 0.04923063986, 0.05287129112, 0.008676522425
7938, 0.04908142248, 0.05282709092, 0.008676522425
7939, 0.04893472285, 0.05277514185, 0.008676522425
7940, 0.04879094307, 0.05271558632, 0.008676522425
7941, 0.04865047724, 0.05264858755, 0.008676522425
7942, 0.04851371035, 0.05257432919, 0.008676522425
7943, 0.04838101728, 0.05249301477, 0.008676522425
7944, 0.04825276173, 0.05240486717, 0.008676522425
7945, 0.04812929523, 0.052310128, 0.008676522425
7946, 0.04801095621, 0.05220905693, 0.008676522425
7947, 0.04789806902, 0.05210193098, 0.008676522425
7948, 0.04779094307, 0.05198904379, 0.008676522425
7949, 0.047689872, 0.05187070477, 0.008676522425
7950, 0.04759513283, 0.05174723827, 0.008676522425
7951, 0.04750698523, 0.05161898272, 0.008676522425
7952, 0.04742567081, 0.05148628965, 0.008676522425
7953, 0.04735141245, 0.05134952276, 0.008676522425
7954, 0.04728441368, 0.05120905693, 0.008676522425
7955, 0.04722485815, 0.05106527715, 0.008676522425
7956, 0.04717290908, 0.05091857752, 0.008676522425
7957, 0.04712870888, 0.05076936014, 0.008676522425
7958, 0.04709237869, 0.05061803399, 0.008676522425
7959, 0.04706401808, 0.05046501385, 0.008676522425
7960, 0.0470437048, 0.05031071915, 0.008676522425
7961, 0.04703149451, 0.05015557278, 0.008676522425
7962, 0.0470274207, 0.05, 0.008676522425
7963, 0.04703149451, 0.04984442722, 0.008676522425
7964, 0.0470437048, 0.04968928085, 0.008676522425
7965, 0.04706401808, 0.04953498615, 0.008676522425
7966, 0.04709237869, 0.04938196601, 0.008676522425
7967, 0.04712870888, 0.04923063986, 0.008676522425
7968, 0.04717290908, 0.04908142248, 0.008676522425
7969, 0.04722485815, 0.04893472285, 0.008676522425
7970, 0.04728441368, 0.04879094307, 0.008676522425
7971, 0.04735141245, 0.04865047724, 0.008676522425
7972, 0.04742567081, 0.04851371035, 0.008676522425
7973, 0.04750698523, 0.04838101728, 0.008676522425
7974, 0.04759513283, 0.04825276173, 0.008676522425
7975, 0.047689872, 0.04812929523, 0.008676522425
7976, 0.04779094307, 0.04801095621, 0.008676522425
7977, 0.04789806902, 0.04789806902, 0.008676522425
7978, 0.04801095621, 0.04779094307, 0.008676522425
7979, 0.04812929523, 0.047689872, 0.008676522425
7980, 0.04825276173, 0.04759513283, 0.008676522425
7981, 0.04838101728, 0.04750698523, 0.008676522425
7982, 0.04851371035, 0.04742567081, 0.008676522425
7983, 0.04865047724, 0.04735141245, 0.008676522425
7984, 0.04879094307, 0.04728441368, 0.008676522425
7985, 0.04893472285, 0.04722485815, 0.008676522425
7986, 0.04908142248, 0.04717290908, 0.008676522425
7987, 0.04923063986, 0.04712870888, 0.008676522425
7988, 0.04938196601, 0.04709237869, 0.008676522425
7989, 0.04953498615, 0.04706401808, 0.008676522425
7990, 0.04968928085, 0.0470437048, 0.008676522425
7991, 0.04984442722, 0.04703149451, 0.008676522425
7992, 0.05, 0.0470274207, 0.008676522425
7993, 0.05015557278, 0.04703149451, 0.008676522425
7994, 0.05031071915, 0.0470437048, 0.008676522425
7995, 0.05046501385, 0.04706401808, 0.008676522425
7996, 0.05061803399, 0.04709237869, 0.008676522425
7997, 0.05076936014, 0.04712870888, 0.008676522425
7998, 0.05091857752, 0.04717290908, 0.008676522425
7999, 0.05106527715, 0.04722485815, 0.008676522425
8000, 0.05120905693, 0.04728441368, 0.008676522425
8001, 0.05134952276, 0.04735141245, 0.008676522425
8002, 0.05148628965, 0.04742567081, 0.008676522425
8003, 0.05161898272, 0.04750698523, 0.008676522425
8004, 0.05174723827, 0.04759513283, 0.008676522425
8005, 0.05187070477, 0.047689872, 0.008676522425
8006, 0.05198904379, 0.04779094307, 0.008676522425
8007, 0.05210193098, 0.04789806902, 0.008676522425
8008, 0.05220905693, 0.04801095621, 0.008676522425
8009, 0.052310128, 0.04812929523, 0.008676522425
8010, 0.05240486717, 0.04825276173, 0.008676522425
8011, 0.05249301477, 0.04838101728, 0.008676522425
8012, 0.05257432919, 0.04851371035, 0.008676522425
8013, 0.05264858755, 0.04865047724, 0.008676522425
8014, 0.05271558632, 0.04879094307, 0.008676522425
8015, 0.05277514185, 0.04893472285, 0.008676522425
8016, 0.05282709092, 0.04908142248, 0.008676522425
8017, 0.05287129112, 0.04923063986, 0.008676522425
8018, 0.05290762131, 0.04938196601, 0.008676522425
8019, 0.05293598192, 0.04953498615, 0.008676522425
8020, 0.0529562952, 0.04968928085, 0.008676522425
8021, 0.05296850549, 0.04984442722, 0.008676522425
8022, 0.0528773592, 0.05, 0.008778633482
8023, 0.05287341588, 0.05015058935, 0.008778633482
8024, 0.05286159673, 0.05030076594, 0.008778633482
8025, 0.05284193413, 0.05045011815, 0.008778633482
8026, 0.052814482, 0.05059823662, 0.008778633482
8027, 0.05277931556, 0.05074471536, 0.008778633482
8028, 0.05273653122, 0.05088915289, 0.008778633482
8029, 0.05268624623, 0.05103115332, 0.008778633482
8030, 0.05262859843, 0.05117032742, 0.008778633482
8031, 0.05256374582, 0.05130629374, 0.008778633482
8032, 0.05249186616, 0.0514386796, 0.008778633482
8033, 0.05241315648, 0.05156712214, 0.008778633482
8034, 0.05232783249, 0.0516912693, 0.008778633482
8035, 0.05223612808, 0.05181078082, 0.008778633482
8036, 0.0521382946, 0.05192532911, 0.008778633482
8037, 0.0520346002, 0.0520346002, 0.008778633482
8038, 0.05192532911, 0.0521382946, 0.008778633482
8039, 0.05181078082, 0.05223612808, 0.008778633482
8040, 0.0516912693, 0.05232783249, 0.008778633482
8041, 0.05156712214, 0.05241315648, 0.008778633482
8042, 0.0514386796, 0.05249186616, 0.008778633482
8043, 0.05130629374, 0.05256374582, 0.008778633482
8044, 0.05117032742, 0.05262859843, 0.008778633482
8045, 0.05103115332, 0.05268624623, 0.008778633482
8046, 0.05088915289, 0.05273653122, 0.008778633482
8047, 0.05074471536, 0.05277931556, 0.008778633482
8048, 0.05059823662, 0.052814482, 0.008778633482
8049, 0.05045011815, 0.05284193413, 0.008778633482
8050, 0.05030076594, 0.05286159673, 0.008778633482
8051, 0.05015058935, 0.05287341588, 0.008778633482
8052, 0.05, 0.0528773592, 0.008778633482
8053, 0.04984941065, 0.05287341588, 0.008778633482
8054, 0.04969923406, 0.05286159673, 0.008778633482
8055, 0.04954988185, 0.05284193413, 0.008778633482
8056, 0.04940176338, 0.052814482, 0.008778633482
8057, 0.04925528464, 0.05277931556, 0.008778633482
8058, 0.04911084711, 0.05273653122, 0.008778633482
8059, 0.04896884668, 0.05268624623, 0.008778633482
8060, 0.04882967258, 0.05262859843, 0.008778633482
8061, 0.04869370626, 0.05256374582, 0.008778633482
8062, 0.0485613204, 0.05249186616, 0.008778633482
8063, 0.04843287786, 0.05241315648, 0.008778633482
8064, 0.0483087307, 0.05232783249, 0.008778633482
8065, 0.04818921918, 0.05223612808, 0.008778633482
8066, 0.04807467089, 0.0521382946, 0.008778633482
8067, 0.0479653998, 0.0520346002, 0.008778633482
8068, 0.0478617054, 0.05192532911, 0.008778633482
8069, 0.04776387192, 0.05181078082, 0.008778633482
8070, 0.04767216751, 0.0516912693, 0.008778633482
8071, 0.04758684352, 0.05156712214, 0.008778633482
8072, 0.04750813384, 0.0514386796, 0.008778633482
8073, 0.04743625418, 0.05130629374, 0.008778633482
8074, 0.04737140157, 0.05117032742, 0.008778633482
8075, 0.04731375377, 0.05103115332, 0.008778633482
8076, 0.04726346878, 0.05088915289, 0.008778633482
8077, 0.04722068444, 0.05074471536, 0.008778633482
8078, 0.047185518, 0.05059823662, 0.008778633482
8079, 0.04715806587, 0.05045011815, 0.008778633482
8080, 0.04713840327, 0.05030076594, 0.008778633482
8081, 0.04712658412, 0.05015058935, 0.008778633482
8082, 0.0471226408, 0.05, 0.008778633482
8083, 0.04712658412, 0.04984941065, 0.008778633482
8084, 0.04713840327, 0.04969923406, 0.008778633482
8085, 0.04715806587, 0.04954988185, 0.008778633482
8086, 0.047185518, 0.04940176338, 0.008778633482
8087, 0.04722068444, 0.04925528464, 0.008778633482
8088, 0.04726346878, 0.04911084711, 0.008778633482
8089, 0.04731375377, 0.04896884668, 0.008778633482
8090, 0.04737140157, 0.04882967258, 0.008778633482
8091, 0.04743625418, 0.04869370626, 0.008778633482
8092, 0.04750813384, 0.0485613204, 0.008778633482
8093, 0.04758684352, 0.04843287786, 0.008778633482
8094, 0.04767216751, 0.0483087307, 0.008778633482
8095, 0.04776387192, 0.04818921918, 0.008778633482
8096, 0.0478617054, 0.04807467089, 0.008778633482
8097, 0.0479653998, 0.0479653998, 0.008778633482
8098, 0.04807467089, 0.0478617054, 0.008778633482
8099, 0.04818921918, 0.04776387192, 0.008778633482
8100, 0.0483087307, 0.04767216751, 0.008778633482
8101, 0.04843287786, 0.04758684352, 0.008778633482
8102, 0.0485613204, 0.04750813384, 0.008778633482
8103, 0.04869370626, 0.04743625418, 0.008778633482
8104, 0.04882967258, 0.04737140157, 0.008778633482
8105, 0.04896884668, 0.04731375377, 0.008778633482
8106, 0.04911084711, 0.04726346878, 0.008778633482
8107, 0.04925528464, 0.04722068444, 0.008778633482
8108, 0.04940176338, 0.047185518, 0.008778633482
8109, 0.04954988185, 0.04715806587, 0.008778633482
8110, 0.04969923406, 0.04713840327, 0.008778633482
8111, 0.04984941065, 0.04712658412, 0.008778633482
8112, 0.05, 0.0471226408, 0.008778633482
8113, 0.05015058935, 0.04712658412, 0.008778633482
8114, 0.05030076594, 0.04713840327, 0.008778633482
8115, 0.05045011815, 0.04715806587, 0.008778633482
8116, 0.05059823662, 0.047185518, 0.008778633482
8117, 0.05074471536, 0.04722068444, 0.008778633482
8118, 0.05088915289, 0.04726346878, 0.008778633482
8119, 0.05103115332, 0.04731375377, 0.008778633482
8120, 0.05117032742, 0.04737140157, 0.008778633482
8121, 0.05130629374, 0.04743625418, 0.008778633482
8122, 0.0514386796, 0.04750813384, 0.008778633482
8123, 0.05156712214, 0.04758684352, 0.008778633482
8124, 0.0516912693, 0.04767216751, 0.008778633482
8125, 0.05181078082, 0.04776387192, 0.008778633482
8126, 0.05192532911, 0.0478617054, 0.008778633482
8127, 0.0520346002, 0.0479653998, 0.008778633482
8128, 0.0521382946, 0.04807467089, 0.008778633482
8129, 0.05223612808, 0.04818921918, 0.008778633482
8130, 0.05232783249, 0.0483087307, 0.008778633482
8131, 0.05241315648, 0.04843287786, 0.008778633482
8132, 0.05249186616, 0.0485613204, 0.008778633482
8133, 0.05256374582, 0.04869370626, 0.008778633482
8134, 0.05262859843, 0.04882967258, 0.008778633482
8135, 0.05268624623, 0.04896884668, 0.008778633482
8136, 0.05273653122, 0.04911084711, 0.008778633482
8137, 0.05277931556, 0.04925528464, 0.008778633482
8138, 0.052814482, 0.04940176338, 0.008778633482
8139, 0.05284193413, 0.04954988185, 0.008778633482
8140, 0.05286159673, 0.04969923406, 0.008778633482
8141, 0.05287341588, 0.04984941065, 0.008778633482
8142, 0.05277863348, 0.05, 0.008877359201
8143, 0.05277482546, 0.05014542244, 0.008877359201
8144, 0.05276341184, 0.05029044629, 0.008877359201
8145, 0.05274442389, 0.05043467404, 0.008877359201
8146, 0.05271791367, 0.05057771039, 0.008877359201
8147, 0.05268395384, 0.05071916326, 0.008877359201
8148, 0.05264263748, 0.05085864497, 0.008877359201
8149, 0.05259407783, 0.05099577318, 0.008877359201
8150, 0.052538408, 0.05113017205, 0.008877359201
8151, 0.05247578056, 0.0512614732, 0.008877359201
8152, 0.05240636718, 0.05138931674, 0.008877359201
8153, 0.05233035812, 0.05151335226, 0.008877359201
8154, 0.05224796171, 0.05163323978, 0.008877359201
8155, 0.05215940379, 0.05174865071, 0.008877359201
8156, 0.05206492709, 0.05185926871, 0.008877359201
8157, 0.05196479058, 0.05196479058, 0.008877359201
8158, 0.05185926871, 0.05206492709, 0.008877359201
8159, 0.05174865071, 0.05215940379, 0.008877359201
8160, 0.05163323978, 0.05224796171, 0.008877359201
8161, 0.05151335226, 0.05233035812, 0.008877359201
8162, 0.05138931674, 0.05240636718, 0.008877359201
8163, 0.0512614732, 0.05247578056, 0.008877359201
8164, 0.05113017205, 0.052538408, 0.008877359201
8165, 0.05099577318, 0.05259407783, 0.008877359201
8166, 0.05085864497, 0.05264263748, 0.008877359201
8167, 0.05071916326, 0.05268395384, 0.008877359201
8168, 0.05057771039, 0.05271791367, 0.008877359201
8169, 0.05043467404, 0.05274442389, 0.008877359201
8170, 0.05029044629, 0.05276341184, 0.008877359201
8171, 0.05014542244, 0.05277482546, 0.008877359201
8172, 0.05, 0.05277863348, 0.008877359201
8173, 0.04985457756, 0.05277482546, 0.008877359201
8174, 0.04970955371, 0.05276341184, 0.008877359201
8175, 0.04956532596, 0.05274442389, 0.008877359201
8176, 0.04942228961, 0.05271791367, 0.008877359201
8177, 0.04928083674, 0.05268395384, 0.008877359201
8178, 0.04914135503, 0.05264263748, 0.008877359201
8179, 0.04900422682, 0.05259407783, 0.008877359201
8180, 0.04886982795, 0.052538408, 0.008877359201
8181, 0.0487385268, 0.05247578056, 0.008877359201
8182, 0.04861068326, 0.05240636718, 0.008877359201
8183, 0.04848664774, 0.05233035812, 0.008877359201
8184, 0.04836676022, 0.05224796171, 0.008877359201
8185, 0.04825134929, 0.05215940379, 0.008877359201
8186, 0.04814073129, 0.05206492709, 0.008877359201
8187, 0.04803520942, 0.05196479058, 0.008877359201
8188, 0.04793507291, 0.05185926871, 0.008877359201
8189, 0.04784059621, 0.05174865071, 0.008877359201
8190, 0.04775203829, 0.05163323978, 0.008877359201
8191, 0.04766964188, 0.05151335226, 0.008877359201
8192, 0.04759363282, 0.05138931674, 0.008877359201
8193, 0.04752421944, 0.0512614732, 0.008877359201
8194, 0.047461592, 0.05113017205, 0.008877359201
8195, 0.04740592217, 0.05099577318, 0.008877359201
8196, 0.04735736252, 0.05085864497, 0.008877359201
8197, 0.04731604616, 0.05071916326, 0.008877359201
8198, 0.04728208633, 0.05057771039, 0.008877359201
8199, 0.04725557611, 0.05043467404, 0.008877359201
8200, 0.04723658816, 0.05029044629, 0.008877359201
8201, 0.04722517454, 0.05014542244, 0.008877359201
8202, 0.04722136652, 0.05, 0.008877359201
8203, 0.04722517454, 0.04985457756, 0.008877359201
8204, 0.04723658816, 0.04970955371, 0.008877359201
8205, 0.04725557611, 0.04956532596, 0.008877359201
8206, 0.04728208633, 0.04942228961, 0.008877359201
8207, 0.04731604616, 0.04928083674, 0.008877359201
8208, 0.04735736252, 0.04914135503, 0.008877359201
8209, 0.04740592217, 0.04900422682, 0.008877359201
8210, 0.047461592, 0.04886982795, 0.008877359201
8211, 0.04752421944, 0.0487385268, 0.008877359201
8212, 0.04759363282, 0.04861068326, 0.008877359201
8213, 0.04766964188, 0.04848664774, 0.008877359201
8214, 0.04775203829, 0.04836676022, 0.008877359201
8215, 0.04784059621, 0.04825134929, 0.008877359201
8216, 0.04793507291, 0.04814073129, 0.008877359201
8217, 0.04803520942, 0.04803520942, 0.008877359201
8218, 0.04814073129, 0.04793507291, 0.008877359201
8219, 0.04825134929, 0.04784059621, 0.008877359201
8220, 0.04836676022, 0.04775203829, 0.008877359201
8221, 0.04848664774, 0.04766964188, 0.008877359201
8222, 0.04861068326, 0.04759363282, 0.008877359201
8223, 0.0487385268, 0.04752421944, 0.008877359201
8224, 0.04886982795, 0.047461592, 0.008877359201
8225, 0.04900422682, 0.04740592217, 0.008877359201
8226, 0.04914135503, 0.04735736252, 0.008877359201
8227, 0.04928083674, 0.04731604616, 0.008877359201
8228, 0.04942228961, 0.04728208633, 0.008877359201
8229, 0.04956532596, 0.04725557611, 0.008877359201
8230, 0.04970955371, 0.04723658816, 0.008877359201
8231, 0.04985457756, 0.04722517454, 0.008877359201
8232, 0.05, 0.04722136652, 0.008877359201
8233, 0.05014542244, 0.04722517454, 0.008877359201
8234, 0.05029044629, 0.04723658816, 0.008877359201
8235, 0.05043467404, 0.04725557611, 0.008877359201
8236, 0.05057771039, 0.04728208633, 0.008877359201
8237, 0.05071916326, 0.04731604616, 0.008877359201
8238, 0.05085864497, 0.04735736252, 0.008877359201
8239, 0.05099577318, 0.04740592217, 0.008877359201
8240, 0.05113017205, 0.047461592, 0.008877359201
8241, 0.0512614732, 0.04752421944, 0.008877359201
8242, 0.05138931674, 0.04759363282, 0.008877359201
8243, 0.05151335226, 0.04766964188, 0.008877359201
8244, 0.05163323978, 0.04775203829, 0.008877359201
8245, 0.05174865071, 0.04784059621, 0.008877359201
8246, 0.05185926871, 0.04793507291, 0.008877359201
8247, 0.05196479058, 0.04803520942, 0.008877359201
8248, 0.05206492709, 0.04814073129, 0.008877359201
8249, 0.05215940379, 0.04825134929, 0.008877359201
8250, 0.05224796171, 0.04836676022, 0.008877359201
8251, 0.05233035812, 0.04848664774, 0.008877359201
8252, 0.05240636718, 0.04861068326, 0.008877359201
8253, 0.05247578056, 0.0487385268, 0.008877359201
8254, 0.052538408, 0.04886982795, 0.008877359201
8255, 0.05259407783, 0.04900422682, 0.008877359201
8256, 0.05264263748, 0.04914135503, 0.008877359201
8257, 0.05268395384, 0.04928083674, 0.008877359201
8258, 0.05271791367, 0.04942228961, 0.008877359201
8259, 0.05274442389, 0.04956532596, 0.008877359201
8260, 0.05276341184, 0.04970955371, 0.008877359201
8261, 0.05277482546, 0.04985457756, 0.008877359201
8262, 0.05267652243, 0.05, 0.008972579302
8263, 0.05267285434, 0.05014007836, 0.008972579302
8264, 0.05266186016, 0.05027977278, 0.008972579302
8265, 0.05264356999, 0.05041870035, 0.008972579302
8266, 0.05261803399, 0.0505564803, 0.008972579302
8267, 0.05258532214, 0.05069273498, 0.008972579302
8268, 0.05254552409, 0.05082709092, 0.008972579302
8269, 0.05249874895, 0.05095917985, 0.008972579302
8270, 0.0524451249, 0.05108863975, 0.008972579302
8271, 0.05238479894, 0.05121511575, 0.008972579302
8272, 0.05231793641, 0.05133826121, 0.008972579302
8273, 0.05224472058, 0.05145773859, 0.008972579302
8274, 0.05216535213, 0.05157322041, 0.008972579302
8275, 0.05208004859, 0.05168439014, 0.008972579302
8276, 0.05198904379, 0.05179094307, 0.008972579302
8277, 0.05189258716, 0.05189258716, 0.008972579302
8278, 0.05179094307, 0.05198904379, 0.008972579302
8279, 0.05168439014, 0.05208004859, 0.008972579302
8280, 0.05157322041, 0.05216535213, 0.008972579302
8281, 0.05145773859, 0.05224472058, 0.008972579302
8282, 0.05133826121, 0.05231793641, 0.008972579302
8283, 0.05121511575, 0.05238479894, 0.008972579302
8284, 0.05108863975, 0.0524451249, 0.008972579302
8285, 0.05095917985, 0.05249874895, 0.008972579302
8286, 0.05082709092, 0.05254552409, 0.008972579302
8287, 0.05069273498, 0.05258532214, 0.008972579302
8288, 0.0505564803, 0.05261803399, 0.008972579302
8289, 0.05041870035, 0.05264356999, 0.008972579302
8290, 0.05027977278, 0.05266186016, 0.008972579302
8291, 0.05014007836, 0.05267285434, 0.008972579302
8292, 0.05, 0.05267652243, 0.008972579302
8293, 0.04985992164, 0.05267285434, 0.008972579302
8294, 0.04972022722, 0.05266186016, 0.008972579302
8295, 0.04958129965, 0.05264356999, 0.008972579302
8296, 0.0494435197, 0.05261803399, 0.008972579302
8297, 0.04930726502, 0.05258532214, 0.008972579302
8298, 0.04917290908, 0.05254552409, 0.008972579302
8299, 0.04904082015, 0.05249874895, 0.008972579302
8300, 0.04891136025, 0.0524451249, 0.008972579302
8301, 0.04878488425, 0.05238479894, 0.008972579302
8302, 0.04866173879, 0.05231793641, 0.008972579302
8303, 0.04854226141, 0.05224472058, 0.008972579302
8304, 0.04842677959, 0.05216535213, 0.008972579302
8305, 0.04831560986, 0.05208004859, 0.008972579302
8306, 0.04820905693, 0.05198904379, 0.008972579302
8307, 0.04810741284, 0.05189258716, 0.008972579302
8308, 0.04801095621, 0.05179094307, 0.008972579302
8309, 0.04791995141, 0.05168439014, 0.008972579302
8310, 0.04783464787, 0.05157322041, 0.008972579302
8311, 0.04775527942, 0.05145773859, 0.008972579302
8312, 0.04768206359, 0.05133826121, 0.008972579302
8313, 0.04761520106, 0.05121511575, 0.008972579302
8314, 0.0475548751, 0.05108863975, 0.008972579302
8315, 0.04750125105, 0.05095917985, 0.008972579302
8316, 0.04745447591, 0.05082709092, 0.008972579302
8317, 0.04741467786, 0.05069273498, 0.008972579302
8318, 0.04738196601, 0.0505564803, 0.008972579302
8319, 0.04735643001, 0.05041870035, 0.008972579302
8320, 0.04733813984, 0.05027977278, 0.008972579302
8321, 0.04732714566, 0.05014007836, 0.008972579302
8322, 0.04732347757, 0.05, 0.008972579302
8323, 0.04732714566, 0.04985992164, 0.008972579302
8324, 0.04733813984, 0.04972022722, 0.008972579302
8325, 0.04735643001, 0.04958129965, 0.008972579302
8326, 0.04738196601, 0.0494435197, 0.008972579302
8327, 0.04741467786, 0.04930726502, 0.008972579302
8328, 0.04745447591, 0.04917290908, 0.008972579302
8329, 0.04750125105, 0.04904082015, 0.008972579302
8330, 0.0475548751, 0.04891136025, 0.008972579302
8331, 0.04761520106, 0.04878488425, 0.008972579302
8332, 0.04768206359, 0.04866173879, 0.008972579302
8333, 0.04775527942, 0.04854226141, 0.008972579302
8334, 0.04783464787, 0.04842677959, 0.008972579302
8335, 0.04791995141, 0.04831560986, 0.008972579302
8336, 0.04801095621, 0.04820905693, 0.008972579302
8337, 0.04810741284, 0.04810741284, 0.008972579302
8338, 0.04820905693, 0.04801095621, 0.008972579302
8339, 0.04831560986, 0.04791995141, 0.008972579302
8340, 0.04842677959, 0.04783464787, 0.008972579302
8341, 0.04854226141, 0.04775527942, 0.008972579302
8342, 0.04866173879, 0.04768206359, 0.008972579302
8343, 0.04878488425, 0.04761520106, 0.008972579302
8344, 0.04891136025, 0.0475548751, 0.008972579302
8345, 0.04904082015, 0.04750125105, 0.008972579302
8346, 0.04917290908, 0.04745447591, 0.008972579302
8347, 0.04930726502, 0.04741467786, 0.008972579302
8348, 0.0494435197, 0.04738196601, 0.008972579302
8349, 0.04958129965, 0.04735643001, 0.008972579302
8350, 0.04972022722, 0.04733813984, 0.008972579302
8351, 0.04985992164, 0.04732714566, 0.008972579302
8352, 0.05, 0.04732347757, 0.008972579302
8353, 0.05014007836, 0.04732714566, 0.008972579302
8354, 0.05027977278, 0.04733813984, 0.008972579302
8355, 0.05041870035, 0.04735643001, 0.008972579302
8356, 0.0505564803, 0.04738196601, 0.008972579302
8357, 0.05069273498, 0.04741467786, 0.008972579302
8358, 0.05082709092, 0.04745447591, 0.008972579302
8359, 0.05095917985, 0.04750125105, 0.008972579302
8360, 0.05108863975, 0.0475548751, 0.008972579302
8361, 0.05121511575, 0.04761520106, 0.008972579302
8362, 0.05133826121, 0.04768206359, 0.008972579302
8363, 0.05145773859, 0.04775527942, 0.008972579302
8364, 0.05157322041, 0.04783464787, 0.008972579302
8365, 0.05168439014, 0.04791995141, 0.008972579302
8366, 0.05179094307, 0.04801095621, 0.008972579302
8367, 0.05189258716, 0.04810741284, 0.008972579302
8368, 0.05198904379, 0.04820905693, 0.008972579302
8369, 0.05208004859, 0.04831560986, 0.008972579302
8370, 0.05216535213, 0.04842677959, 0.008972579302
8371, 0.05224472058, 0.04854226141, 0.008972579302
8372, 0.05231793641, 0.04866173879, 0.008972579302
8373, 0.05238479894, 0.04878488425, 0.008972579302
8374, 0.0524451249, 0.04891136025, 0.008972579302
8375, 0.05249874895, 0.04904082015, 0.008972579302
8376, 0.05254552409, 0.04917290908, 0.008972579302
8377, 0.05258532214, 0.04930726502, 0.008972579302
8378, 0.05261803399, 0.0494435197, 0.008972579302
8379, 0.05264356999, 0.04958129965, 0.008972579302
8380, 0.05266186016, 0.04972022722, 0.008972579302
8381, 0.05267285434, 0.04985992164, 0.008972579302
8382, 0.05257115044, 0.05, 0.009064177772
8383, 0.05256762677, 0.05013456362, 0.009064177772
8384, 0.05255706541, 0.0502687584, 0.009064177772
8385, 0.05253949531, 0.05040221654, 0.009064177772
8386, 0.05251496463, 0.05053457224, 0.009064177772
8387, 0.05248354061, 0.0506654627, 0.009064177772
8388, 0.05244530938, 0.05079452918, 0.009064177772
8389, 0.05240037572, 0.05092141791, 0.009064177772
8390, 0.0523488628, 0.0510457811, 0.009064177772
8391, 0.05229091182, 0.05116727787, 0.009064177772
8392, 0.0522266816, 0.05128557522, 0.009064177772
8393, 0.0521563482, 0.05140034889, 0.009064177772
8394, 0.0520801044, 0.05151128431, 0.009064177772
8395, 0.05199815918, 0.0516180774, 0.009064177772
8396, 0.05191073714, 0.05172043545, 0.009064177772
8397, 0.05181807791, 0.05181807791, 0.009064177772
8398, 0.05172043545, 0.05191073714, 0.009064177772
8399, 0.0516180774, 0.05199815918, 0.009064177772
8400, 0.05151128431, 0.0520801044, 0.009064177772
8401, 0.05140034889, 0.0521563482, 0.009064177772
8402, 0.05128557522, 0.0522266816, 0.009064177772
8403, 0.05116727787, 0.05229091182, 0.009064177772
8404, 0.0510457811, 0.0523488628, 0.009064177772
8405, 0.05092141791, 0.05240037572, 0.009064177772
8406, 0.05079452918, 0.05244530938, 0.009064177772
8407, 0.0506654627, 0.05248354061, 0.009064177772
8408, 0.05053457224, 0.05251496463, 0.009064177772
8409, 0.05040221654, 0.05253949531, 0.009064177772
8410, 0.0502687584, 0.05255706541, 0.009064177772
8411, 0.05013456362, 0.05256762677, 0.009064177772
8412, 0.05, 0.05257115044, 0.009064177772
8413, 0.04986543638, 0.05256762677, 0.009064177772
8414, 0.0497312416, 0.05255706541, 0.009064177772
8415, 0.04959778346, 0.05253949531, 0.009064177772
8416, 0.04946542776, 0.05251496463, 0.009064177772
8417, 0.0493345373, 0.05248354061, 0.009064177772
8418, 0.04920547082, 0.05244530938, 0.009064177772
8419, 0.04907858209, 0.05240037572, 0.009064177772
8420, 0.0489542189, 0.0523488628, 0.009064177772
8421, 0.04883272213, 0.05229091182, 0.009064177772
8422, 0.04871442478, 0.0522266816, 0.009064177772
8423, 0.04859965111, 0.0521563482, 0.009064177772
8424, 0.04848871569, 0.0520801044, 0.009064177772
8425, 0.0483819226, 0.05199815918, 0.009064177772
8426, 0.04827956455, 0.05191073714, 0.009064177772
8427, 0.04818192209, 0.05181807791, 0.009064177772
8428, 0.04808926286, 0.05172043545, 0.009064177772
8429, 0.04800184082, 0.0516180774, 0.009064177772
8430, 0.0479198956, 0.05151128431, 0.009064177772
8431, 0.0478436518, 0.05140034889, 0.009064177772
8432, 0.0477733184, 0.05128557522, 0.009064177772
8433, 0.04770908818, 0.05116727787, 0.009064177772
8434, 0.0476511372, 0.0510457811, 0.009064177772
8435, 0.04759962428, 0.05092141791, 0.009064177772
8436, 0.04755469062, 0.05079452918, 0.009064177772
8437, 0.04751645939, 0.0506654627, 0.009064177772
8438, 0.04748503537, 0.05053457224, 0.009064177772
8439, 0.04746050469, 0.05040221654, 0.009064177772
8440, 0.04744293459, 0.0502687584, 0.009064177772
8441, 0.04743237323, 0.05013456362, 0.009064177772
8442, 0.04742884956, 0.05, 0.009064177772
8443, 0.04743237323, 0.04986543638, 0.009064177772
8444, 0.04744293459, 0.0497312416, 0.009064177772
8445, 0.04746050469, 0.04959778346, 0.009064177772
8446, 0.04748503537, 0.04946542776, 0.009064177772
8447, 0.04751645939, 0.0493345373, 0.009064177772
8448, 0.04755469062, 0.04920547082, 0.009064177772
8449, 0.04759962428, 0.04907858209, 0.009064177772
8450, 0.0476511372, 0.0489542189, 0.009064177772
8451, 0.04770908818, 0.04883272213, 0.009064177772
8452, 0.0477733184, 0.04871442478, 0.009064177772
8453, 0.0478436518, 0.04859965111, 0.009064177772
8454, 0.0479198956, 0.04848871569, 0.009064177772
8455, 0.04800184082, 0.0483819226, 0.009064177772
8456, 0.04808926286, 0.04827956455, 0.009064177772
8457, 0.04818192209, 0.04818192209, 0.009064177772
8458, 0.04827956455, 0.04808926286, 0.009064177772
8459, 0.0483819226, 0.04800184082, 0.009064177772
8460, 0.04848871569, 0.0479198956, 0.009064177772
8461, 0.04859965111, 0.0478436518, 0.009064177772
8462, 0.04871442478, 0.0477733184, 0.009064177772
8463, 0.04883272213, 0.04770908818, 0.009064177772
8464, 0.0489542189, 0.0476511372, 0.009064177772
8465, 0.04907858209, 0.04759962428, 0.009064177772
8466, 0.04920547082, 0.04755469062, 0.009064177772
8467, 0.0493345373, 0.04751645939, 0.009064177772
8468, 0.04946542776, 0.04748503537, 0.009064177772
8469, 0.04959778346, 0.04746050469, 0.009064177772
8470, 0.0497312416, 0.04744293459, 0.009064177772
8471, 0.04986543638, 0.04743237323, 0.009064177772
8472, 0.05, 0.04742884956, 0.009064177772
8473, 0.05013456362, 0.04743237323, 0.009064177772
8474, 0.0502687584, 0.04744293459, 0.009064177772
8475, 0.05040221654, 0.04746050469, 0.009064177772
8476, 0.05053457224, 0.04748503537, 0.009064177772
8477, 0.0506654627, 0.04751645939, 0.009064177772
8478, 0.05079452918, 0.04755469062, 0.009064177772
8479, 0.05092141791, 0.04759962428, 0.009064177772
8480, 0.0510457811, 0.0476511372, 0.009064177772
8481, 0.05116727787, 0.04770908818, 0.009064177772
8482, 0.05128557522, 0.0477733184, 0.009064177772
8483, 0.05140034889, 0.0478436518, 0.009064177772
8484, 0.05151128431, 0.0479198956, 0.009064177772
8485, 0.0516180774, 0.04800184082, 0.009064177772
8486, 0.05172043545, 0.04808926286, 0.009064177772
8487, 0.05181807791, 0.04818192209, 0.009064177772
8488, 0.05191073714, 0.04827956455, 0.009064177772
8489, 0.05199815918, 0.0483819226, 0.009064177772
8490, 0.0520801044, 0.04848871569, 0.009064177772
8491, 0.0521563482, 0.04859965111, 0.009064177772
8492, 0.0522266816, 0.04871442478, 0.009064177772
8493, 0.05229091182, 0.04883272213, 0.009064177772
8494, 0.0523488628, 0.0489542189, 0.009064177772
8495, 0.05240037572, 0.04907858209, 0.009064177772
8496, 0.05244530938, 0.04920547082, 0.009064177772
8497, 0.05248354061, 0.0493345373, 0.009064177772
8498, 0.05251496463, 0.04946542776, 0.009064177772
8499, 0.05253949531, 0.04959778346, 0.009064177772
8500, 0.05255706541, 0.0497312416, 0.009064177772
8501, 0.05256762677, 0.04986543638, 0.009064177772
8502, 0.0524626459, 0.05, 0.009152043014
8503, 0.05245927093, 0.05012888493, 0.009152043014
8504, 0.05244915527, 0.05025741659, 0.009152043014
8505, 0.05243232664, 0.05038524269, 0.009152043014
8506, 0.05240883118, 0.05051201287, 0.009152043014
8507, 0.05237873328, 0.05063737966, 0.009152043014
8508, 0.05234211543, 0.05076099943, 0.009152043014
8509, 0.05229907801, 0.05088253336, 0.009152043014
8510, 0.05224973898, 0.05100164833, 0.009152043014
8511, 0.05219423356, 0.05111801784, 0.009152043014
8512, 0.05213271391, 0.05123132295, 0.009152043014
8513, 0.05206534864, 0.05134125309, 0.009152043014
8514, 0.05199232239, 0.05144750694, 0.009152043014
8515, 0.05191383532, 0.05154979328, 0.009152043014
8516, 0.05183010256, 0.05164783175, 0.009152043014
8517, 0.05174135362, 0.05174135362, 0.009152043014
8518, 0.05164783175, 0.05183010256, 0.009152043014
8519, 0.05154979328, 0.05191383532, 0.009152043014
8520, 0.05144750694, 0.05199232239, 0.009152043014
8521, 0.05134125309, 0.05206534864, 0.009152043014
8522, 0.05123132295, 0.05213271391, 0.009152043014
8523, 0.05111801784, 0.05219423356, 0.009152043014
8524, 0.05100164833, 0.05224973898, 0.009152043014
8525, 0.05088253336, 0.05229907801, 0.009152043014
8526, 0.05076099943, 0.05234211543, 0.009152043014
8527, 0.05063737966, 0.05237873328, 0.009152043014
8528, 0.05051201287, 0.05240883118, 0.009152043014
8529, 0.05038524269, 0.05243232664, 0.009152043014
8530, 0.05025741659, 0.05244915527, 0.009152043014
8531, 0.05012888493, 0.05245927093, 0.009152043014
8532, 0.05, 0.0524626459, 0.009152043014
8533, 0.04987111507, 0.05245927093, 0.009152043014
8534, 0.04974258341, 0.05244915527, 0.009152043014
8535, 0.04961475731, 0.05243232664, 0.009152043014
8536, 0.04948798713, 0.05240883118, 0.009152043014
8537, 0.04936262034, 0.05237873328, 0.009152043014
8538, 0.04923900057, 0.05234211543, 0.009152043014
8539, 0.04911746664, 0.05229907801, 0.009152043014
8540, 0.04899835167, 0.05224973898, 0.009152043014
8541, 0.04888198216, 0.05219423356, 0.009152043014
8542, 0.04876867705, 0.05213271391, 0.009152043014
8543, 0.04865874691, 0.05206534864, 0.009152043014
8544, 0.04855249306, 0.05199232239, 0.009152043014
8545, 0.04845020672, 0.05191383532, 0.009152043014
8546, 0.04835216825, 0.05183010256, 0.009152043014
8547, 0.04825864638, 0.05174135362, 0.009152043014
8548, 0.04816989744, 0.05164783175, 0.009152043014
8549, 0.04808616468, 0.05154979328, 0.009152043014
8550, 0.04800767761, 0.05144750694, 0.009152043014
8551, 0.04793465136, 0.05134125309, 0.009152043014
8552, 0.04786728609, 0.05123132295, 0.009152043014
8553, 0.04780576644, 0.05111801784, 0.009152043014
8554, 0.04775026102, 0.05100164833, 0.009152043014
8555, 0.04770092199, 0.05088253336, 0.009152043014
8556, 0.04765788457, 0.05076099943, 0.009152043014
8557, 0.04762126672, 0.05063737966, 0.009152043014
8558, 0.04759116882, 0.05051201287, 0.009152043014
8559, 0.04756767336, 0.05038524269, 0.009152043014
8560, 0.04755084473, 0.05025741659, 0.009152043014
8561, 0.04754072907, 0.05012888493, 0.009152043014
8562, 0.0475373541, 0.05, 0.009152043014
8563, 0.04754072907, 0.04987111507, 0.009152043014
8564, 0.04755084473, 0.04974258341, 0.009152043014
8565, 0.04756767336, 0.04961475731, 0.009152043014
8566, 0.04759116882, 0.04948798713, 0.009152043014
8567, 0.04762126672, 0.04936262034, 0.009152043014
8568, 0.04765788457, 0.04923900057, 0.009152043014
8569, 0.04770092199, 0.04911746664, 0.009152043014
8570, 0.04775026102, 0.04899835167, 0.009152043014
8571, 0.04780576644, 0.04888198216, 0.009152043014
8572, 0.04786728609, 0.04876867705, 0.009152043014
8573, 0.04793465136, 0.04865874691, 0.009152043014
8574, 0.04800767761, 0.04855249306, 0.009152043014
8575, 0.04808616468, 0.04845020672, 0.009152043014
8576, 0.04816989744, 0.04835216825, 0.009152043014
8577, 0.04825864638, 0.04825864638, 0.009152043014
8578, 0.04835216825, 0.04816989744, 0.009152043014
8579, 0.04845020672, 0.04808616468, 0.009152043014
8580, 0.04855249306, 0.04800767761, 0.009152043014
8581, 0.04865874691, 0.04793465136, 0.009152043014
8582, 0.04876867705, 0.04786728609, 0.009152043014
8583, 0.04888198216, 0.04780576644, 0.009152043014
8584, 0.04899835167, 0.04775026102, 0.009152043014
8585, 0.04911746664, 0.04770092199, 0.009152043014
8586, 0.04923900057, 0.04765788457, 0.009152043014
8587, 0.04936262034, 0.04762126672, 0.009152043014
8588, 0.04948798713, 0.04759116882, 0.009152043014
8589, 0.04961475731, 0.04756767336, 0.009152043014
8590, 0.04974258341, 0.04755084473, 0.009152043014
8591, 0.04987111507, 0.04754072907, 0.009152043014
8592, 0.05, 0.0475373541, 0.009152043014
8593, 0.05012888493, 0.04754072907, 0.009152043014
8594, 0.05025741659, 0.04755084473, 0.009152043014
8595, 0.05038524269, 0.04756767336, 0.009152043014
8596, 0.05051201287, 0.04759116882, 0.009152043014
8597, 0.05063737966, 0.04762126672, 0.009152043014
8598, 0.05076099943, 0.04765788457, 0.009152043014
8599, 0.05088253336, 0.04770092199, 0.009152043014
8600, 0.05100164833, 0.04775026102, 0.009152043014
8601, 0.05111801784, 0.04780576644, 0.009152043014
8602, 0.05123132295, 0.04786728609, 0.009152043014
8603, 0.05134125309, 0.04793465136, 0.009152043014
8604, 0.05144750694, 0.04800767761, 0.009152043014
8605, 0.05154979328, 0.04808616468, 0.009152043014
8606, 0.05164783175, 0.04816989744, 0.009152043014
8607, 0.05174135362, 0.04825864638, 0.009152043014
8608, 0.05183010256, 0.04835216825, 0.009152043014
8609, 0.05191383532, 0.04845020672, 0.009152043014
8610, 0.05199232239, 0.04855249306, 0.009152043014
8611, 0.05206534864, 0.04865874691, 0.009152043014
8612, 0.05213271391, 0.04876867705, 0.009152043014
8613, 0.05219423356, 0.04888198216, 0.009152043014
8614, 0.05224973898, 0.04899835167, 0.009152043014
8615, 0.05229907801, 0.04911746664, 0.009152043014
8616, 0.05234211543, 0.04923900057, 0.009152043014
8617, 0.05237873328, 0.04936262034, 0.009152043014
8618, 0.05240883118, 0.04948798713, 0.009152043014
8619, 0.05243232664, 0.04961475731, 0.009152043014
8620, 0.05244915527, 0.04974258341, 0.009152043014
8621, 0.05245927093, 0.04987111507, 0.009152043014
8622, 0.05235114101, 0.05, 0.009236067977
8623, 0.05234791885, 0.05012304921, 0.009236067977
8624, 0.05233826121, 0.05024576116, 0.009236067977
8625, 0.05232219456, 0.05036779949, 0.009236067977
8626, 0.05229976294, 0.0504888297, 0.009236067977
8627, 0.05227102782, 0.05060852007, 0.009236067977
8628, 0.05223606798, 0.05072654253, 0.009236067977
8629, 0.05219497923, 0.05084257358, 0.009236067977
8630, 0.05214787419, 0.0509562952, 0.009236067977
8631, 0.05209488198, 0.05106739568, 0.009236067977
8632, 0.05203614784, 0.0511755705, 0.009236067977
8633, 0.05197183277, 0.05128052317, 0.009236067977
8634, 0.05190211303, 0.05138196601, 0.009236067977
8635, 0.05182717974, 0.05147962098, 0.009236067977
8636, 0.05174723827, 0.05157322041, 0.009236067977
8637, 0.05166250775, 0.05166250775, 0.009236067977
8638, 0.05157322041, 0.05174723827, 0.009236067977
8639, 0.05147962098, 0.05182717974, 0.009236067977
8640, 0.05138196601, 0.05190211303, 0.009236067977
8641, 0.05128052317, 0.05197183277, 0.009236067977
8642, 0.0511755705, 0.05203614784, 0.009236067977
8643, 0.05106739568, 0.05209488198, 0.009236067977
8644, 0.0509562952, 0.05214787419, 0.009236067977
8645, 0.05084257358, 0.05219497923, 0.009236067977
8646, 0.05072654253, 0.05223606798, 0.009236067977
8647, 0.05060852007, 0.05227102782, 0.009236067977
8648, 0.0504888297, 0.05229976294, 0.009236067977
8649, 0.05036779949, 0.05232219456, 0.009236067977
8650, 0.05024576116, 0.05233826121, 0.009236067977
8651, 0.05012304921, 0.05234791885, 0.009236067977
8652, 0.05, 0.05235114101, 0.009236067977
8653, 0.04987695079, 0.05234791885, 0.009236067977
8654, 0.04975423884, 0.05233826121, 0.009236067977
8655, 0.04963220051, 0.05232219456, 0.009236067977
8656, 0.0495111703, 0.05229976294, 0.009236067977
8657, 0.04939147993, 0.05227102782, 0.009236067977
8658, 0.04927345747, 0.05223606798, 0.009236067977
8659, 0.04915742642, 0.05219497923, 0.009236067977
8660, 0.0490437048, 0.05214787419, 0.009236067977
8661, 0.04893260432, 0.05209488198, 0.009236067977
8662, 0.0488244295, 0.05203614784, 0.009236067977
8663, 0.04871947683, 0.05197183277, 0.009236067977
8664, 0.04861803399, 0.05190211303, 0.009236067977
8665, 0.04852037902, 0.05182717974, 0.009236067977
8666, 0.04842677959, 0.05174723827, 0.009236067977
8667, 0.04833749225, 0.05166250775, 0.009236067977
8668, 0.04825276173, 0.05157322041, 0.009236067977
8669, 0.04817282026, 0.05147962098, 0.009236067977
8670, 0.04809788697, 0.05138196601, 0.009236067977
8671, 0.04802816723, 0.05128052317, 0.009236067977
8672, 0.04796385216, 0.0511755705, 0.009236067977
8673, 0.04790511802, 0.05106739568, 0.009236067977
8674, 0.04785212581, 0.0509562952, 0.009236067977
8675, 0.04780502077, 0.05084257358, 0.009236067977
8676, 0.04776393202, 0.05072654253, 0.009236067977
8677, 0.04772897218, 0.05060852007, 0.009236067977
8678, 0.04770023706, 0.0504888297, 0.009236067977
8679, 0.04767780544, 0.05036779949, 0.009236067977
8680, 0.04766173879, 0.05024576116, 0.009236067977
8681, 0.04765208115, 0.05012304921, 0.009236067977
8682, 0.04764885899, 0.05, 0.009236067977
8683, 0.04765208115, 0.04987695079, 0.009236067977
8684, 0.04766173879, 0.04975423884, 0.009236067977
8685, 0.04767780544, 0.04963220051, 0.009236067977
8686, 0.04770023706, 0.0495111703, 0.009236067977
8687, 0.04772897218, 0.04939147993, 0.009236067977
8688, 0.04776393202, 0.04927345747, 0.009236067977
8689, 0.04780502077, 0.04915742642, 0.009236067977
8690, 0.04785212581, 0.0490437048, 0.009236067977
8691, 0.04790511802, 0.04893260432, 0.009236067977
8692, 0.04796385216, 0.0488244295, 0.009236067977
8693, 0.04802816723, 0.04871947683, 0.009236067977
8694, 0.04809788697, 0.04861803399, 0.009236067977
8695, 0.04817282026, 0.04852037902, 0.009236067977
8696, 0.04825276173, 0.04842677959, 0.009236067977
8697, 0.04833749225, 0.04833749225, 0.009236067977
8698, 0.04842677959, 0.04825276173, 0.009236067977
8699, 0.04852037902, 0.04817282026, 0.009236067977
8700, 0.04861803399, 0.04809788697, 0.009236067977
8701, 0.04871947683, 0.04802816723, 0.009236067977
8702, 0.0488244295, 0.04796385216, 0.009236067977
8703, 0.04893260432, 0.04790511802, 0.009236067977
8704, 0.0490437048, 0.04785212581, 0.009236067977
8705, 0.04915742642, 0.04780502077, 0.009236067977
8706, 0.04927345747, 0.04776393202, 0.009236067977
8707, 0.04939147993, 0.04772897218, 0.009236067977
8708, 0.0495111703, 0.04770023706, 0.009236067977
8709, 0.04963220051, 0.04767780544, 0.009236067977
8710, 0.04975423884, 0.04766173879, 0.009236067977
8711, 0.04987695079, 0.04765208115, 0.009236067977
8712, 0.05, 0.04764885899, 0.009236067977
8713, 0.05012304921, 0.04765208115, 0.009236067977
8714, 0.05024576116, 0.04766173879, 0.009236067977
8715, 0.05036779949, 0.04767780544, 0.009236067977
8716, 0.0504888297, 0.04770023706, 0.009236067977
8717, 0.05060852007, 0.04772897218, 0.009236067977
8718, 0.05072654253, 0.04776393202, 0.009236067977
8719, 0.05084257358, 0.04780502077, 0.009236067977
8720, 0.0509562952, 0.04785212581, 0.009236067977
8721, 0.05106739568, 0.04790511802, 0.009236067977
8722, 0.0511755705, 0.04796385216, 0.009236067977
8723, 0.05128052317, 0.04802816723, 0.009236067977
8724, 0.05138196601, 0.04809788697, 0.009236067977
8725, 0.05147962098, 0.04817282026, 0.009236067977
8726, 0.05157322041, 0.04825276173, 0.009236067977
8727, 0.05166250775, 0.04833749225, 0.009236067977
8728, 0.05174723827, 0.04842677959, 0.009236067977
8729, 0.05182717974, 0.04852037902, 0.009236067977
8730, 0.05190211303, 0.04861803399, 0.009236067977
8731, 0.05197183277, 0.04871947683, 0.009236067977
8732, 0.05203614784, 0.0488244295, 0.009236067977
8733, 0.05209488198, 0.04893260432, 0.009236067977
8734, 0.05214787419, 0.0490437048, 0.009236067977
8735, 0.05219497923, 0.04915742642, 0.009236067977
8736, 0.05223606798, 0.04927345747, 0.009236067977
8737, 0.05227102782, 0.04939147993, 0.009236067977
8738, 0.05229976294, 0.0495111703, 0.009236067977
8739, 0.05232219456, 0.04963220051, 0.009236067977
8740, 0.05233826121, 0.04975423884, 0.009236067977
8741, 0.05234791885, 0.04987695079, 0.009236067977
8742, 0.05223677161, 0.05, 0.00931615029
8743, 0.0522337062, 0.05011706358, 0.00931615029
8744, 0.05222451834, 0.0502338063, 0.00931615029
8745, 0.05220923324, 0.05034990817, 0.00931615029
8746, 0.05218789279, 0.05046505097, 0.00931615029
8747, 0.05216055547, 0.05057891909, 0.00931615029
8748, 0.05212729622, 0.05069120044, 0.00931615029
8749, 0.0520882062, 0.05080158726, 0.00931615029
8750, 0.05204339255, 0.05090977698, 0.00931615029
8751, 0.0519929781, 0.05101547306, 0.00931615029
8752, 0.05193710104, 0.05111838581, 0.00931615029
8753, 0.05187591452, 0.05121823313, 0.00931615029
8754, 0.05180958625, 0.05131474137, 0.00931615029
8755, 0.05173829803, 0.05140764599, 0.00931615029
8756, 0.05166224525, 0.05149669235, 0.00931615029
8757, 0.05158163638, 0.05158163638, 0.00931615029
8758, 0.05149669235, 0.05166224525, 0.00931615029
8759, 0.05140764599, 0.05173829803, 0.00931615029
8760, 0.05131474137, 0.05180958625, 0.00931615029
8761, 0.05121823313, 0.05187591452, 0.00931615029
8762, 0.05111838581, 0.05193710104, 0.00931615029
8763, 0.05101547306, 0.0519929781, 0.00931615029
8764, 0.05090977698, 0.05204339255, 0.00931615029
8765, 0.05080158726, 0.0520882062, 0.00931615029
8766, 0.05069120044, 0.05212729622, 0.00931615029
8767, 0.05057891909, 0.05216055547, 0.00931615029
8768, 0.05046505097, 0.05218789279, 0.00931615029
8769, 0.05034990817, 0.05220923324, 0.00931615029
8770, 0.0502338063, 0.05222451834, 0.00931615029
8771, 0.05011706358, 0.0522337062, 0.00931615029
8772, 0.05, 0.05223677161, 0.00931615029
8773, 0.04988293642, 0.0522337062, 0.00931615029
8774, 0.0497661937, 0.05222451834, 0.00931615029
8775, 0.04965009183, 0.05220923324, 0.00931615029
8776, 0.04953494903, 0.05218789279, 0.00931615029
8777, 0.04942108091, 0.05216055547, 0.00931615029
8778, 0.04930879956, 0.05212729622, 0.00931615029
8779, 0.04919841274, 0.0520882062, 0.00931615029
8780, 0.04909022302, 0.05204339255, 0.00931615029
8781, 0.04898452694, 0.0519929781, 0.00931615029
8782, 0.04888161419, 0.05193710104, 0.00931615029
8783, 0.04878176687, 0.05187591452, 0.00931615029
8784, 0.04868525863, 0.05180958625, 0.00931615029
8785, 0.04859235401, 0.05173829803, 0.00931615029
8786, 0.04850330765, 0.05166224525, 0.00931615029
8787, 0.04841836362, 0.05158163638, 0.00931615029
8788, 0.04833775475, 0.05149669235, 0.00931615029
8789, 0.04826170197, 0.05140764599, 0.00931615029
8790, 0.04819041375, 0.05131474137, 0.00931615029
8791, 0.04812408548, 0.05121823313, 0.00931615029
8792, 0.04806289896, 0.05111838581, 0.00931615029
8793, 0.0480070219, 0.05101547306, 0.00931615029
8794, 0.04795660745, 0.05090977698, 0.00931615029
8795, 0.0479117938, 0.05080158726, 0.00931615029
8796, 0.04787270378, 0.05069120044, 0.00931615029
8797, 0.04783944453, 0.05057891909, 0.00931615029
8798, 0.04781210721, 0.05046505097, 0.00931615029
8799, 0.04779076676, 0.05034990817, 0.00931615029
8800, 0.04777548166, 0.0502338063, 0.00931615029
8801, 0.0477662938, 0.05011706358, 0.00931615029
8802, 0.04776322839, 0.05, 0.00931615029
8803, 0.0477662938, 0.04988293642, 0.00931615029
8804, 0.04777548166, 0.0497661937, 0.00931615029
8805, 0.04779076676, 0.04965009183, 0.00931615029
8806, 0.04781210721, 0.04953494903, 0.00931615029
8807, 0.04783944453, 0.04942108091, 0.00931615029
8808, 0.04787270378, 0.04930879956, 0.00931615029
8809, 0.0479117938, 0.04919841274, 0.00931615029
8810, 0.04795660745, 0.04909022302, 0.00931615029
8811, 0.0480070219, 0.04898452694, 0.00931615029
8812, 0.04806289896, 0.04888161419, 0.00931615029
8813, 0.04812408548, 0.04878176687, 0.00931615029
8814, 0.04819041375, 0.04868525863, 0.00931615029
8815, 0.04826170197, 0.04859235401, 0.00931615029
8816, 0.04833775475, 0.04850330765, 0.00931615029
8817, 0.04841836362, 0.04841836362, 0.00931615029
8818, 0.04850330765, 0.04833775475, 0.00931615029
8819, 0.04859235401, 0.04826170197, 0.00931615029
8820, 0.04868525863, 0.04819041375, 0.00931615029
8821, 0.04878176687, 0.04812408548, 0.00931615029
8822, 0.04888161419, 0.04806289896, 0.00931615029
8823, 0.04898452694, 0.0480070219, 0.00931615029
8824, 0.04909022302, 0.04795660745, 0.00931615029
8825, 0.04919841274, 0.0479117938, 0.00931615029
8826, 0.04930879956, 0.04787270378, 0.00931615029
8827, 0.04942108091, 0.04783944453, 0.00931615029
8828, 0.04953494903, 0.04781210721, 0.00931615029
8829, 0.04965009183, 0.04779076676, 0.00931615029
8830, 0.0497661937, 0.04777548166, 0.00931615029
8831, 0.04988293642, 0.0477662938, 0.00931615029
8832, 0.05, 0.04776322839, 0.00931615029
8833, 0.05011706358, 0.0477662938, 0.00931615029
8834, 0.0502338063, 0.04777548166, 0.00931615029
8835, 0.05034990817, 0.04779076676, 0.00931615029
8836, 0.05046505097, 0.04781210721, 0.00931615029
8837, 0.05057891909, 0.04783944453, 0.00931615029
8838, 0.05069120044, 0.04787270378, 0.00931615029
8839, 0.05080158726, 0.0479117938, 0.00931615029
8840, 0.05090977698, 0.04795660745, 0.00931615029
8841, 0.05101547306, 0.0480070219, 0.00931615029
8842, 0.05111838581, 0.04806289896, 0.00931615029
8843, 0.05121823313, 0.04812408548, 0.00931615029
8844, 0.05131474137, 0.04819041375, 0.00931615029
8845, 0.05140764599, 0.04826170197, 0.00931615029
8846, 0.05149669235, 0.04833775475, 0.00931615029
8847, 0.05158163638, 0.04841836362, 0.00931615029
8848, 0.05166224525, 0.04850330765, 0.00931615029
8849, 0.05173829803, 0.04859235401, 0.00931615029
8850, 0.05180958625, 0.04868525863, 0.00931615029
8851, 0.05187591452, 0.04878176687, 0.00931615029
8852, 0.05193710104, 0.04888161419, 0.00931615029
8853, 0.0519929781, 0.04898452694, 0.00931615029
8854, 0.05204339255, 0.04909022302, 0.00931615029
8855, 0.0520882062, 0.04919841274, 0.00931615029
8856, 0.05212729622, 0.04930879956, 0.00931615029
8857, 0.05216055547, 0.04942108091, 0.00931615029
8858, 0.05218789279, 0.04953494903, 0.00931615029
8859, 0.05220923324, 0.04965009183, 0.00931615029
8860, 0.05222451834, 0.0497661937, 0.00931615029
8861, 0.0522337062, 0.04988293642, 0.00931615029
8862, 0.05211967706, 0.05, 0.009392192385
8863, 0.05211677211, 0.05011093533, 0.009392192385
8864, 0.05210806524, 0.05022156659, 0.009392192385
8865, 0.05209358031, 0.05033159055, 0.009392192385
8866, 0.05207335703, 0.05044070564, 0.009392192385
8867, 0.05204745081, 0.05054861279, 0.009392192385
8868, 0.05201593268, 0.05065501623, 0.009392192385
8869, 0.05197888901, 0.05075962432, 0.009392192385
8870, 0.05193642135, 0.05086215033, 0.009392192385
8871, 0.05188864609, 0.05096231325, 0.009392192385
8872, 0.05183569418, 0.05105983853, 0.009392192385
8873, 0.05177771076, 0.05115445887, 0.009392192385
8874, 0.05171485476, 0.05124591491, 0.009392192385
8875, 0.05164729846, 0.05133395599, 0.009392192385
8876, 0.05157522704, 0.05141834079, 0.009392192385
8877, 0.05149883802, 0.05149883802, 0.009392192385
8878, 0.05141834079, 0.05157522704, 0.009392192385
8879, 0.05133395599, 0.05164729846, 0.009392192385
8880, 0.05124591491, 0.05171485476, 0.009392192385
8881, 0.05115445887, 0.05177771076, 0.009392192385
8882, 0.05105983853, 0.05183569418, 0.009392192385
8883, 0.05096231325, 0.05188864609, 0.009392192385
8884, 0.05086215033, 0.05193642135, 0.009392192385
8885, 0.05075962432, 0.05197888901, 0.009392192385
8886, 0.05065501623, 0.05201593268, 0.009392192385
8887, 0.05054861279, 0.05204745081, 0.009392192385
8888, 0.05044070564, 0.05207335703, 0.009392192385
8889, 0.05033159055, 0.05209358031, 0.009392192385
8890, 0.05022156659, 0.05210806524, 0.009392192385
8891, 0.05011093533, 0.05211677211, 0.009392192385
8892, 0.05, 0.05211967706, 0.009392192385
8893, 0.04988906467, 0.05211677211, 0.009392192385
8894, 0.04977843341, 0.05210806524, 0.009392192385
8895, 0.04966840945, 0.05209358031, 0.009392192385
8896, 0.04955929436, 0.05207335703, 0.009392192385
8897, 0.04945138721, 0.05204745081, 0.009392192385
8898, 0.04934498377, 0.05201593268, 0.009392192385
8899, 0.04924037568, 0.05197888901, 0.009392192385
8900, 0.04913784967, 0.05193642135, 0.009392192385
8901, 0.04903768675, 0.05188864609, 0.009392192385
8902, 0.04894016147, 0.05183569418, 0.009392192385
8903, 0.04884554113, 0.05177771076, 0.009392192385
8904, 0.04875408509, 0.05171485476, 0.009392192385
8905, 0.04866604401, 0.05164729846, 0.009392192385
8906, 0.04858165921, 0.05157522704, 0.009392192385
8907, 0.04850116198, 0.05149883802, 0.009392192385
8908, 0.04842477296, 0.05141834079, 0.009392192385
8909, 0.04835270154, 0.05133395599, 0.009392192385
8910, 0.04828514524, 0.05124591491, 0.009392192385
8911, 0.04822228924, 0.05115445887, 0.009392192385
8912, 0.04816430582, 0.05105983853, 0.009392192385
8913, 0.04811135391, 0.05096231325, 0.009392192385
8914, 0.04806357865, 0.05086215033, 0.009392192385
8915, 0.04802111099, 0.05075962432, 0.009392192385
8916, 0.04798406732, 0.05065501623, 0.009392192385
8917, 0.04795254919, 0.05054861279, 0.009392192385
8918, 0.04792664297, 0.05044070564, 0.009392192385
8919, 0.04790641969, 0.05033159055, 0.009392192385
8920, 0.04789193476, 0.05022156659, 0.009392192385
8921, 0.04788322789, 0.05011093533, 0.009392192385
8922, 0.04788032294, 0.05, 0.009392192385
8923, 0.04788322789, 0.04988906467, 0.009392192385
8924, 0.04789193476, 0.04977843341, 0.009392192385
8925, 0.04790641969, 0.04966840945, 0.009392192385
8926, 0.04792664297, 0.04955929436, 0.009392192385
8927, 0.04795254919, 0.04945138721, 0.009392192385
8928, 0.04798406732, 0.04934498377, 0.009392192385
8929, 0.04802111099, 0.04924037568, 0.009392192385
8930, 0.04806357865, 0.04913784967, 0.009392192385
8931, 0.04811135391, 0.04903768675, 0.009392192385
8932, 0.04816430582, 0.04894016147, 0.009392192385
8933, 0.04822228924, 0.04884554113, 0.009392192385
8934, 0.04828514524, 0.04875408509, 0.009392192385
8935, 0.04835270154, 0.04866604401, 0.009392192385
8936, 0.04842477296, 0.04858165921, 0.009392192385
8937, 0.04850116198, 0.04850116198, 0.009392192385
8938, 0.04858165921, 0.04842477296, 0.009392192385
8939, 0.04866604401, 0.04835270154, 0.009392192385
8940, 0.04875408509, 0.04828514524, 0.009392192385
8941, 0.04884554113, 0.04822228924, 0.009392192385
8942, 0.04894016147, 0.04816430582, 0.009392192385
8943, 0.04903768675, 0.04811135391, 0.009392192385
8944, 0.04913784967, 0.04806357865, 0.009392192385
8945, 0.04924037568, 0.04802111099, 0.009392192385
8946, 0.04934498377, 0.04798406732, 0.009392192385
8947, 0.04945138721, 0.04795254919, 0.009392192385
8948, 0.04955929436, 0.04792664297, 0.009392192385
8949, 0.04966840945, 0.04790641969, 0.009392192385
8950, 0.04977843341, 0.04789193476, 0.009392192385
8951, 0.04988906467, 0.04788322789, 0.009392192385
8952, 0.05, 0.04788032294, 0.009392192385
8953, 0.05011093533, 0.04788322789, 0.009392192385
8954, 0.05022156659, 0.04789193476, 0.009392192385
8955, 0.05033159055, 0.04790641969, 0.009392192385
8956, 0.05044070564, 0.04792664297, 0.009392192385
8957, 0.05054861279, 0.04795254919, 0.009392192385
8958, 0.05065501623, 0.04798406732, 0.009392192385
8959, 0.05075962432, 0.04802111099, 0.009392192385
8960, 0.05086215033, 0.04806357865, 0.009392192385
8961, 0.05096231325, 0.04811135391, 0.009392192385
8962, 0.05105983853, 0.04816430582, 0.009392192385
8963, 0.05115445887, 0.04822228924, 0.009392192385
8964, 0.05124591491, 0.04828514524, 0.009392192385
8965, 0.05133395599, 0.04835270154, 0.009392192385
8966, 0.05141834079, 0.04842477296, 0.009392192385
8967, 0.05149883802, 0.04850116198, 0.009392192385
8968, 0.05157522704, 0.04858165921, 0.009392192385
8969, 0.05164729846, 0.04866604401, 0.009392192385
8970, 0.05171485476, 0.04875408509, 0.009392192385
8971, 0.05177771076, 0.04884554113, 0.009392192385
8972, 0.05183569418, 0.04894016147, 0.009392192385
8973, 0.05188864609, 0.04903768675, 0.009392192385
8974, 0.05193642135, 0.04913784967, 0.009392192385
8975, 0.05197888901, 0.04924037568, 0.009392192385
8976, 0.05201593268, 0.04934498377, 0.009392192385
8977, 0.05204745081, 0.04945138721, 0.009392192385
8978, 0.05207335703, 0.04955929436, 0.009392192385
8979, 0.05209358031, 0.04966840945, 0.009392192385
8980, 0.05210806524, 0.04977843341, 0.009392192385
8981, 0.05211677211, 0.04988906467, 0.009392192385
8982, 0.052, 0.05, 0.009464101615
8983, 0.05199725907, 0.05010467191, 0.009464101615
8984, 0.05198904379, 0.05020905693, 0.009464101615
8985, 0.05197537668, 0.05031286893, 0.009464101615
8986, 0.0519562952, 0.05041582338, 0.009464101615
8987, 0.05193185165, 0.05051763809, 0.009464101615
8988, 0.05190211303, 0.05061803399, 0.009464101615
8989, 0.05186716085, 0.0507167359, 0.009464101615
8990, 0.05182709092, 0.05081347329, 0.009464101615
8991, 0.05178201305, 0.050907981, 0.009464101615
8992, 0.05173205081, 0.051, 0.009464101615
8993, 0.05167734114, 0.05108927807, 0.009464101615
8994, 0.05161803399, 0.0511755705, 0.009464101615
8995, 0.05155429192, 0.05125864078, 0.009464101615
8996, 0.05148628965, 0.05133826121, 0.009464101615
8997, 0.05141421356, 0.05141421356, 0.009464101615
8998, 0.05133826121, 0.05148628965, 0.009464101615
8999, 0.05125864078, 0.05155429192, 0.009464101615
9000, 0.0511755705, 0.05161803399, 0.009464101615
9001, 0.05108927807, 0.05167734114, 0.009464101615
9002, 0.051, 0.05173205081, 0.009464101615
9003, 0.050907981, 0.05178201305, 0.009464101615
9004, 0.05081347329, 0.05182709092, 0.009464101615
9005, 0.0507167359, 0.05186716085, 0.009464101615
9006, 0.05061803399, 0.05190211303, 0.009464101615
9007, 0.05051763809, 0.05193185165, 0.009464101615
9008, 0.05041582338, 0.0519562952, 0.009464101615
9009, 0.05031286893, 0.05197537668, 0.009464101615
9010, 0.05020905693, 0.05198904379, 0.009464101615
9011, 0.05010467191, 0.05199725907, 0.009464101615
9012, 0.05, 0.052, 0.009464101615
9013, 0.04989532809, 0.05199725907, 0.009464101615
9014, 0.04979094307, 0.05198904379, 0.009464101615
9015, 0.04968713107, 0.05197537668, 0.009464101615
9016, 0.04958417662, 0.0519562952, 0.009464101615
9017, 0.04948236191, 0.05193185165, 0.009464101615
9018, 0.04938196601, 0.05190211303, 0.009464101615
9019, 0.0492832641, 0.05186716085, 0.009464101615
9020, 0.04918652671, 0.05182709092, 0.009464101615
9021, 0.049092019, 0.05178201305, 0.009464101615
9022, 0.049, 0.05173205081, 0.009464101615
9023, 0.04891072193, 0.05167734114, 0.009464101615
9024, 0.0488244295, 0.05161803399, 0.009464101615
9025, 0.04874135922, 0.05155429192, 0.009464101615
9026, 0.04866173879, 0.05148628965, 0.009464101615
9027, 0.04858578644, 0.05141421356, 0.009464101615
9028, 0.04851371035, 0.05133826121, 0.009464101615
9029, 0.04844570808, 0.05125864078, 0.009464101615
9030, 0.04838196601, 0.0511755705, 0.009464101615
9031, 0.04832265886, 0.05108927807, 0.009464101615
9032, 0.04826794919, 0.051, 0.009464101615
9033, 0.04821798695, 0.050907981, 0.009464101615
9034, 0.04817290908, 0.05081347329, 0.009464101615
9035, 0.04813283915, 0.0507167359, 0.009464101615
9036, 0.04809788697, 0.05061803399, 0.009464101615
9037, 0.04806814835, 0.05051763809, 0.009464101615
9038, 0.0480437048, 0.05041582338, 0.009464101615
9039, 0.04802462332, 0.05031286893, 0.009464101615
9040, 0.04801095621, 0.05020905693, 0.009464101615
9041, 0.04800274093, 0.05010467191, 0.009464101615
9042, 0.048, 0.05, 0.009464101615
9043, 0.04800274093, 0.04989532809, 0.009464101615
9044, 0.04801095621, 0.04979094307, 0.009464101615
9045, 0.04802462332, 0.04968713107, 0.009464101615
9046, 0.0480437048, 0.04958417662, 0.009464101615
9047, 0.04806814835, 0.04948236191, 0.009464101615
9048, 0.04809788697, 0.04938196601, 0.009464101615
9049, 0.04813283915, 0.0492832641, 0.009464101615
9050, 0.04817290908, 0.04918652671, 0.009464101615
9051, 0.04821798695, 0.049092019, 0.009464101615
9052, 0.04826794919, 0.049, 0.009464101615
9053, 0.04832265886, 0.04891072193, 0.009464101615
9054, 0.04838196601, 0.0488244295, 0.009464101615
9055, 0.04844570808, 0.04874135922, 0.009464101615
9056, 0.04851371035, 0.04866173879, 0.009464101615
9057, 0.04858578644, 0.04858578644, 0.009464101615
9058, 0.04866173879, 0.04851371035, 0.009464101615
9059, 0.04874135922, 0.04844570808, 0.009464101615
9060, 0.0488244295, 0.04838196601, 0.009464101615
9061, 0.04891072193, 0.04832265886, 0.009464101615
9062, 0.049, 0.04826794919, 0.009464101615
9063, 0.049092019, 0.04821798695, 0.009464101615
9064, 0.04918652671, 0.04817290908, 0.009464101615
9065, 0.0492832641, 0.04813283915, 0.009464101615
9066, 0.04938196601, 0.04809788697, 0.009464101615
9067, 0.04948236191, 0.04806814835, 0.009464101615
9068, 0.04958417662, 0.0480437048, 0.009464101615
9069, 0.04968713107, 0.04802462332, 0.009464101615
9070, 0.04979094307, 0.04801095621, 0.009464101615
9071, 0.04989532809, 0.04800274093, 0.009464101615
9072, 0.05, 0.048, 0.009464101615
9073, 0.05010467191, 0.04800274093, 0.009464101615
9074, 0.05020905693, 0.04801095621, 0.009464101615
9075, 0.05031286893, 0.04802462332, 0.009464101615
9076, 0.05041582338, 0.0480437048, 0.009464101615
9077, 0.05051763809, 0.04806814835, 0.009464101615
9078, 0.05061803399, 0.04809788697, 0.009464101615
9079, 0.0507167359, 0.04813283915, 0.009464101615
9080, 0.05081347329, 0.04817290908, 0.009464101615
9081, 0.050907981, 0.04821798695, 0.009464101615
9082, 0.051, 0.04826794919, 0.009464101615
9083, 0.05108927807, 0.04832265886, 0.009464101615
9084, 0.0511755705, 0.04838196601, 0.009464101615
9085, 0.05125864078, 0.04844570808, 0.009464101615
9086, 0.05133826121, 0.04851371035, 0.009464101615
9087, 0.05141421356, 0.04858578644, 0.009464101615
9088, 0.05148628965, 0.04866173879, 0.009464101615
9089, 0.05155429192, 0.04874135922, 0.009464101615
9090, 0.05161803399, 0.0488244295, 0.009464101615
9091, 0.05167734114, 0.04891072193, 0.009464101615
9092, 0.05173205081, 0.049, 0.009464101615
9093, 0.05178201305, 0.049092019, 0.009464101615
9094, 0.05182709092, 0.04918652671, 0.009464101615
9095, 0.05186716085, 0.0492832641, 0.009464101615
9096, 0.05190211303, 0.04938196601, 0.009464101615
9097, 0.05193185165, 0.04948236191, 0.009464101615
9098, 0.0519562952, 0.04958417662, 0.009464101615
9099, 0.05197537668, 0.04968713107, 0.009464101615
9100, 0.05198904379, 0.04979094307, 0.009464101615
9101, 0.05199725907, 0.04989532809, 0.009464101615
9102, 0.05187788625, 0.05, 0.009531790371
9103, 0.05187531267, 0.05009828097, 0.009531790371
9104, 0.05186759899, 0.05019629256, 0.009531790371
9105, 0.05185476636, 0.05029376613, 0.009531790371
9106, 0.05183684993, 0.05039043451, 0.009531790371
9107, 0.05181389883, 0.05048603273, 0.009531790371
9108, 0.05178597596, 0.05058029877, 0.009531790371
9109, 0.05175315785, 0.05067297425, 0.009531790371
9110, 0.05171553445, 0.05076380515, 0.009531790371
9111, 0.0516732089, 0.05085254252, 0.009531790371
9112, 0.0516262972, 0.05093894313, 0.009531790371
9113, 0.05157492793, 0.05102277016, 0.009531790371
9114, 0.05151924189, 0.05110379384, 0.009531790371
9115, 0.05145939172, 0.05118179211, 0.009531790371
9116, 0.05139554145, 0.05125655117, 0.009531790371
9117, 0.0513278661, 0.0513278661, 0.009531790371
9118, 0.05125655117, 0.05139554145, 0.009531790371
9119, 0.05118179211, 0.05145939172, 0.009531790371
9120, 0.05110379384, 0.05151924189, 0.009531790371
9121, 0.05102277016, 0.05157492793, 0.009531790371
9122, 0.05093894313, 0.0516262972, 0.009531790371
9123, 0.05085254252, 0.0516732089, 0.009531790371
9124, 0.05076380515, 0.05171553445, 0.009531790371
9125, 0.05067297425, 0.05175315785, 0.009531790371
9126, 0.05058029877, 0.05178597596, 0.009531790371
9127, 0.05048603273, 0.05181389883, 0.009531790371
9128, 0.05039043451, 0.05183684993, 0.009531790371
9129, 0.05029376613, 0.05185476636, 0.009531790371
9130, 0.05019629256, 0.05186759899, 0.009531790371
9131, 0.05009828097, 0.05187531267, 0.009531790371
9132, 0.05, 0.05187788625, 0.009531790371
9133, 0.04990171903, 0.05187531267, 0.009531790371
9134, 0.04980370744, 0.05186759899, 0.009531790371
9135, 0.04970623387, 0.05185476636, 0.009531790371
9136, 0.04960956549, 0.05183684993, 0.009531790371
9137, 0.04951396727, 0.05181389883, 0.009531790371
9138, 0.04941970123, 0.05178597596, 0.009531790371
9139, 0.04932702575, 0.05175315785, 0.009531790371
9140, 0.04923619485, 0.05171553445, 0.009531790371
9141, 0.04914745748, 0.0516732089, 0.009531790371
9142, 0.04906105687, 0.0516262972, 0.009531790371
9143, 0.04897722984, 0.05157492793, 0.009531790371
9144, 0.04889620616, 0.05151924189, 0.009531790371
9145, 0.04881820789, 0.05145939172, 0.009531790371
9146, 0.04874344883, 0.05139554145, 0.009531790371
9147, 0.0486721339, 0.0513278661, 0.009531790371
9148, 0.04860445855, 0.05125655117, 0.009531790371
9149, 0.04854060828, 0.05118179211, 0.009531790371
9150, 0.04848075811, 0.05110379384, 0.009531790371
9151, 0.04842507207, 0.05102277016, 0.009531790371
9152, 0.0483737028, 0.05093894313, 0.009531790371
9153, 0.0483267911, 0.05085254252, 0.009531790371
9154, 0.04828446555, 0.05076380515, 0.009531790371
9155, 0.04824684215, 0.05067297425, 0.009531790371
9156, 0.04821402404, 0.05058029877, 0.009531790371
9157, 0.04818610117, 0.05048603273, 0.009531790371
9158, 0.04816315007, 0.05039043451, 0.009531790371
9159, 0.04814523364, 0.05029376613, 0.009531790371
9160, 0.04813240101, 0.05019629256, 0.009531790371
9161, 0.04812468733, 0.05009828097, 0.009531790371
9162, 0.04812211375, 0.05, 0.009531790371
9163, 0.04812468733, 0.04990171903, 0.009531790371
9164, 0.04813240101, 0.04980370744, 0.009531790371
9165, 0.04814523364, 0.04970623387, 0.009531790371
9166, 0.04816315007, 0.04960956549, 0.009531790371
9167, 0.04818610117, 0.04951396727, 0.009531790371
9168, 0.04821402404, 0.04941970123, 0.009531790371
9169, 0.04824684215, 0.04932702575, 0.009531790371
9170, 0.04828446555, 0.04923619485, 0.009531790371
9171, 0.0483267911, 0.04914745748, 0.009531790371
9172, 0.0483737028, 0.04906105687, 0.009531790371
9173, 0.04842507207, 0.04897722984, 0.009531790371
9174, 0.04848075811, 0.04889620616, 0.009531790371
9175, 0.04854060828, 0.04881820789, 0.009531790371
9176, 0.04860445855, 0.04874344883, 0.009531790371
9177, 0.0486721339, 0.0486721339, 0.009531790371
9178, 0.04874344883, 0.04860445855, 0.009531790371
9179, 0.04881820789, 0.04854060828, 0.009531790371
9180, 0.04889620616, 0.04848075811, 0.009531790371
9181, 0.04897722984, 0.04842507207, 0.009531790371
9182, 0.04906105687, 0.0483737028, 0.009531790371
9183, 0.04914745748, 0.0483267911, 0.009531790371
9184, 0.04923619485, 0.04828446555, 0.009531790371
9185, 0.04932702575, 0.04824684215, 0.009531790371
9186, 0.04941970123, 0.04821402404, 0.009531790371
9187, 0.04951396727, 0.04818610117, 0.009531790371
9188, 0.04960956549, 0.04816315007, 0.009531790371
9189, 0.04970623387, 0.04814523364, 0.009531790371
9190, 0.04980370744, 0.04813240101, 0.009531790371
9191, 0.04990171903, 0.04812468733, 0.009531790371
9192, 0.05, 0.04812211375, 0.009531790371
9193, 0.05009828097, 0.04812468733, 0.009531790371
9194, 0.05019629256, 0.04813240101, 0.009531790371
9195, 0.05029376613, 0.04814523364, 0.009531790371
9196, 0.05039043451, 0.04816315007, 0.009531790371
9197, 0.05048603273, 0.04818610117, 0.009531790371
9198, 0.05058029877, 0.04821402404, 0.009531790371
9199, 0.05067297425, 0.04824684215, 0.009531790371
9200, 0.05076380515, 0.04828446555, 0.009531790371
9201, 0.05085254252, 0.0483267911, 0.009531790371
9202, 0.05093894313, 0.0483737028, 0.009531790371
9203, 0.05102277016, 0.04842507207, 0.009531790371
9204, 0.05110379384, 0.04848075811, 0.009531790371
9205, 0.05118179211, 0.04854060828, 0.009531790371
9206, 0.05125655117, 0.04860445855, 0.009531790371
9207, 0.0513278661, 0.0486721339, 0.009531790371
9208, 0.05139554145, 0.04874344883, 0.009531790371
9209, 0.05145939172, 0.04881820789, 0.009531790371
9210, 0.05151924189, 0.04889620616, 0.009531790371
9211, 0.05157492793, 0.04897722984, 0.009531790371
9212, 0.0516262972, 0.04906105687, 0.009531790371
9213, 0.0516732089, 0.04914745748, 0.009531790371
9214, 0.05171553445, 0.04923619485, 0.009531790371
9215, 0.05175315785, 0.04932702575, 0.009531790371
9216, 0.05178597596, 0.04941970123, 0.009531790371
9217, 0.05181389883, 0.04951396727, 0.009531790371
9218, 0.05183684993, 0.04960956549, 0.009531790371
9219, 0.05185476636, 0.04970623387, 0.009531790371
9220, 0.05186759899, 0.04980370744, 0.009531790371
9221, 0.05187531267, 0.04990171903, 0.009531790371
9222, 0.05175348459, 0.05, 0.009595176185
9223, 0.0517510815, 0.05009177029, 0.009595176185
9224, 0.05174387882, 0.05018328905, 0.009595176185
9225, 0.05173189628, 0.05027430542, 0.009595176185
9226, 0.05171516674, 0.05036456995, 0.009595176185
9227, 0.05169373605, 0.05045383521, 0.009595176185
9228, 0.05166766294, 0.05054185654, 0.009595176185
9229, 0.05163701889, 0.05062839268, 0.009595176185
9230, 0.05160188788, 0.05071320643, 0.009595176185
9231, 0.05156236621, 0.05079606534, 0.009595176185
9232, 0.0515185622, 0.05087674229, 0.009595176185
9233, 0.05147059591, 0.05095501615, 0.009595176185
9234, 0.05141859883, 0.05103067238, 0.009595176185
9235, 0.05136271347, 0.05110350361, 0.009595176185
9236, 0.051303093, 0.05117331021, 0.009595176185
9237, 0.05123990084, 0.05123990084, 0.009595176185
9238, 0.05117331021, 0.051303093, 0.009595176185
9239, 0.05110350361, 0.05136271347, 0.009595176185
9240, 0.05103067238, 0.05141859883, 0.009595176185
9241, 0.05095501615, 0.05147059591, 0.009595176185
9242, 0.05087674229, 0.0515185622, 0.009595176185
9243, 0.05079606534, 0.05156236621, 0.009595176185
9244, 0.05071320643, 0.05160188788, 0.009595176185
9245, 0.05062839268, 0.05163701889, 0.009595176185
9246, 0.05054185654, 0.05166766294, 0.009595176185
9247, 0.05045383521, 0.05169373605, 0.009595176185
9248, 0.05036456995, 0.05171516674, 0.009595176185
9249, 0.05027430542, 0.05173189628, 0.009595176185
9250, 0.05018328905, 0.05174387882, 0.009595176185
9251, 0.05009177029, 0.0517510815, 0.009595176185
9252, 0.05, 0.05175348459, 0.009595176185
9253, 0.04990822971, 0.0517510815, 0.009595176185
9254, 0.04981671095, 0.05174387882, 0.009595176185
9255, 0.04972569458, 0.05173189628, 0.009595176185
9256, 0.04963543005, 0.05171516674, 0.009595176185
9257, 0.04954616479, 0.05169373605, 0.009595176185
9258, 0.04945814346, 0.05166766294, 0.009595176185
9259, 0.04937160732, 0.05163701889, 0.009595176185
9260, 0.04928679357, 0.05160188788, 0.009595176185
9261, 0.04920393466, 0.05156236621, 0.009595176185
9262, 0.04912325771, 0.0515185622, 0.009595176185
9263, 0.04904498385, 0.05147059591, 0.009595176185
9264, 0.04896932762, 0.05141859883, 0.009595176185
9265, 0.04889649639, 0.05136271347, 0.009595176185
9266, 0.04882668979, 0.051303093, 0.009595176185
9267, 0.04876009916, 0.05123990084, 0.009595176185
9268, 0.048696907, 0.05117331021, 0.009595176185
9269, 0.04863728653, 0.05110350361, 0.009595176185
9270, 0.04858140117, 0.05103067238, 0.009595176185
9271, 0.04852940409, 0.05095501615, 0.009595176185
9272, 0.0484814378, 0.05087674229, 0.009595176185
9273, 0.04843763379, 0.05079606534, 0.009595176185
9274, 0.04839811212, 0.05071320643, 0.009595176185
9275, 0.04836298111, 0.05062839268, 0.009595176185
9276, 0.04833233706, 0.05054185654, 0.009595176185
9277, 0.04830626395, 0.05045383521, 0.009595176185
9278, 0.04828483326, 0.05036456995, 0.009595176185
9279, 0.04826810372, 0.05027430542, 0.009595176185
9280, 0.04825612118, 0.05018328905, 0.009595176185
9281, 0.0482489185, 0.05009177029, 0.009595176185
9282, 0.04824651541, 0.05, 0.009595176185
9283, 0.0482489185, 0.04990822971, 0.009595176185
9284, 0.04825612118, 0.04981671095, 0.009595176185
9285, 0.04826810372, 0.04972569458, 0.009595176185
9286, 0.04828483326, 0.04963543005, 0.009595176185
9287, 0.04830626395, 0.04954616479, 0.009595176185
9288, 0.04833233706, 0.04945814346, 0.009595176185
9289, 0.04836298111, 0.04937160732, 0.009595176185
9290, 0.04839811212, 0.04928679357, 0.009595176185
9291, 0.04843763379, 0.04920393466, 0.009595176185
9292, 0.0484814378, 0.04912325771, 0.009595176185
9293, 0.04852940409, 0.04904498385, 0.009595176185
9294, 0.04858140117, 0.04896932762, 0.009595176185
9295, 0.04863728653, 0.04889649639, 0.009595176185
9296, 0.048696907, 0.04882668979, 0.009595176185
9297, 0.04876009916, 0.04876009916, 0.009595176185
9298, 0.04882668979, 0.048696907, 0.009595176185
9299, 0.04889649639, 0.04863728653, 0.009595176185
9300, 0.04896932762, 0.04858140117, 0.009595176185
9301, 0.04904498385, 0.04852940409, 0.009595176185
9302, 0.04912325771, 0.0484814378, 0.009595176185
9303, 0.04920393466, 0.04843763379, 0.009595176185
9304, 0.04928679357, 0.04839811212, 0.009595176185
9305, 0.04937160732, 0.04836298111, 0.009595176185
9306, 0.04945814346, 0.04833233706, 0.009595176185
9307, 0.04954616479, 0.04830626395, 0.009595176185
9308, 0.04963543005, 0.04828483326, 0.009595176185
9309, 0.04972569458, 0.04826810372, 0.009595176185
9310, 0.04981671095, 0.04825612118, 0.009595176185
9311, 0.04990822971, 0.0482489185, 0.009595176185
9312, 0.05, 0.04824651541, 0.009595176185
9313, 0.05009177029, 0.0482489185, 0.009595176185
9314, 0.05018328905, 0.04825612118, 0.009595176185
9315, 0.05027430542, 0.04826810372, 0.009595176185
9316, 0.05036456995, 0.04828483326, 0.009595176185
9317, 0.05045383521, 0.04830626395, 0.009595176185
9318, 0.05054185654, 0.04833233706, 0.009595176185
9319, 0.05062839268, 0.04836298111, 0.009595176185
9320, 0.05071320643, 0.04839811212, 0.009595176185
9321, 0.05079606534, 0.04843763379, 0.009595176185
9322, 0.05087674229, 0.0484814378, 0.009595176185
9323, 0.05095501615, 0.04852940409, 0.009595176185
9324, 0.05103067238, 0.04858140117, 0.009595176185
9325, 0.05110350361, 0.04863728653, 0.009595176185
9326, 0.05117331021, 0.048696907, 0.009595176185
9327, 0.05123990084, 0.04876009916, 0.009595176185
9328, 0.051303093, 0.04882668979, 0.009595176185
9329, 0.05136271347, 0.04889649639, 0.009595176185
9330, 0.05141859883, 0.04896932762, 0.009595176185
9331, 0.05147059591, 0.04904498385, 0.009595176185
9332, 0.0515185622, 0.04912325771, 0.009595176185
9333, 0.05156236621, 0.04920393466, 0.009595176185
9334, 0.05160188788, 0.04928679357, 0.009595176185
9335, 0.05163701889, 0.04937160732, 0.009595176185
9336, 0.05166766294, 0.04945814346, 0.009595176185
9337, 0.05169373605, 0.04954616479, 0.009595176185
9338, 0.05171516674, 0.04963543005, 0.009595176185
9339, 0.05173189628, 0.04972569458, 0.009595176185
9340, 0.05174387882, 0.04981671095, 0.009595176185
9341, 0.0517510815, 0.04990822971, 0.009595176185
9342, 0.05162694657, 0.05, 0.009654181831
9343, 0.0516247169, 0.0500851478, 0.009654181831
9344, 0.05161803399, 0.05017006223, 0.009654181831
9345, 0.05160691616, 0.05025451052, 0.009654181831
9346, 0.05159139389, 0.05033826121, 0.009654181831
9347, 0.05157150971, 0.05042108476, 0.009654181831
9348, 0.05154731814, 0.05050275414, 0.009654181831
9349, 0.05151888547, 0.05058304551, 0.009654181831
9350, 0.05148628965, 0.05066173879, 0.009654181831
9351, 0.05144962001, 0.05073861829, 0.009654181831
9352, 0.05140897706, 0.05081347329, 0.009654181831
9353, 0.05136447221, 0.05088609861, 0.009654181831
9354, 0.05131622743, 0.0509562952, 0.009654181831
9355, 0.05126437496, 0.05102387065, 0.009654181831
9356, 0.05120905693, 0.05108863975, 0.009654181831
9357, 0.05115042495, 0.05115042495, 0.009654181831
9358, 0.05108863975, 0.05120905693, 0.009654181831
9359, 0.05102387065, 0.05126437496, 0.009654181831
9360, 0.0509562952, 0.05131622743, 0.009654181831
9361, 0.05088609861, 0.05136447221, 0.009654181831
9362, 0.05081347329, 0.05140897706, 0.009654181831
9363, 0.05073861829, 0.05144962001, 0.009654181831
9364, 0.05066173879, 0.05148628965, 0.009654181831
9365, 0.05058304551, 0.05151888547, 0.009654181831
9366, 0.05050275414, 0.05154731814, 0.009654181831
9367, 0.05042108476, 0.05157150971, 0.009654181831
9368, 0.05033826121, 0.05159139389, 0.009654181831
9369, 0.05025451052, 0.05160691616, 0.009654181831
9370, 0.05017006223, 0.05161803399, 0.009654181831
9371, 0.0500851478, 0.0516247169, 0.009654181831
9372, 0.05, 0.05162694657, 0.009654181831
9373, 0.0499148522, 0.0516247169, 0.009654181831
9374, 0.04982993777, 0.05161803399, 0.009654181831
9375, 0.04974548948, 0.05160691616, 0.009654181831
9376, 0.04966173879, 0.05159139389, 0.009654181831
9377, 0.04957891524, 0.05157150971, 0.009654181831
9378, 0.04949724586, 0.05154731814, 0.009654181831
9379, 0.04941695449, 0.05151888547, 0.009654181831
9380, 0.04933826121, 0.05148628965, 0.009654181831
9381, 0.04926138171, 0.05144962001, 0.009654181831
9382, 0.04918652671, 0.05140897706, 0.009654181831
9383, 0.04911390139, 0.05136447221, 0.009654181831
9384, 0.0490437048, 0.05131622743, 0.009654181831
9385, 0.04897612935, 0.05126437496, 0.009654181831
9386, 0.04891136025, 0.05120905693, 0.009654181831
9387, 0.04884957505, 0.05115042495, 0.009654181831
9388, 0.04879094307, 0.05108863975, 0.009654181831
9389, 0.04873562504, 0.05102387065, 0.009654181831
9390, 0.04868377257, 0.0509562952, 0.009654181831
9391, 0.04863552779, 0.05088609861, 0.009654181831
9392, 0.04859102294, 0.05081347329, 0.009654181831
9393, 0.04855037999, 0.05073861829, 0.009654181831
9394, 0.04851371035, 0.05066173879, 0.009654181831
9395, 0.04848111453, 0.05058304551, 0.009654181831
9396, 0.04845268186, 0.05050275414, 0.009654181831
9397, 0.04842849029, 0.05042108476, 0.009654181831
9398, 0.04840860611, 0.05033826121, 0.009654181831
9399, 0.04839308384, 0.05025451052, 0.009654181831
9400, 0.04838196601, 0.05017006223, 0.009654181831
9401, 0.0483752831, 0.0500851478, 0.009654181831
9402, 0.04837305343, 0.05, 0.009654181831
9403, 0.0483752831, 0.0499148522, 0.009654181831
9404, 0.04838196601, 0.04982993777, 0.009654181831
9405, 0.04839308384, 0.04974548948, 0.009654181831
9406, 0.04840860611, 0.04966173879, 0.009654181831
9407, 0.04842849029, 0.04957891524, 0.009654181831
9408, 0.04845268186, 0.04949724586, 0.009654181831
9409, 0.04848111453, 0.04941695449, 0.009654181831
9410, 0.04851371035, 0.04933826121, 0.009654181831
9411, 0.04855037999, 0.04926138171, 0.009654181831
9412, 0.04859102294, 0.04918652671, 0.009654181831
9413, 0.04863552779, 0.04911390139, 0.009654181831
9414, 0.04868377257, 0.0490437048, 0.009654181831
9415, 0.04873562504, 0.04897612935, 0.009654181831
9416, 0.04879094307, 0.04891136025, 0.009654181831
9417, 0.04884957505, 0.04884957505, 0.009654181831
9418, 0.04891136025, 0.04879094307, 0.009654181831
9419, 0.04897612935, 0.04873562504, 0.009654181831
9420, 0.0490437048, 0.04868377257, 0.009654181831
9421, 0.04911390139, 0.04863552779, 0.009654181831
9422, 0.04918652671, 0.04859102294, 0.009654181831
9423, 0.04926138171, 0.04855037999, 0.009654181831
9424, 0.04933826121, 0.04851371035, 0.009654181831
9425, 0.04941695449, 0.04848111453, 0.009654181831
9426, 0.04949724586, 0.04845268186, 0.009654181831
9427, 0.04957891524, 0.04842849029, 0.009654181831
9428, 0.04966173879, 0.04840860611, 0.009654181831
9429, 0.04974548948, 0.04839308384, 0.009654181831
9430, 0.04982993777, 0.04838196601, 0.009654181831
9431, 0.0499148522, 0.0483752831, 0.009654181831
9432, 0.05, 0.04837305343, 0.009654181831
9433, 0.0500851478, 0.0483752831, 0.009654181831
9434, 0.05017006223, 0.04838196601, 0.009654181831
9435, 0.05025451052, 0.04839308384, 0.009654181831
9436, 0.05033826121, 0.04840860611, 0.009654181831
9437, 0.05042108476, 0.04842849029, 0.009654181831
9438, 0.05050275414, 0.04845268186, 0.009654181831
9439, 0.05058304551, 0.04848111453, 0.009654181831
9440, 0.05066173879, 0.04851371035, 0.009654181831
9441, 0.05073861829, 0.04855037999, 0.009654181831
9442, 0.05081347329, 0.04859102294, 0.009654181831
9443, 0.05088609861, 0.04863552779, 0.009654181831
9444, 0.0509562952, 0.04868377257, 0.009654181831
9445, 0.05102387065, 0.04873562504, 0.009654181831
9446, 0.05108863975, 0.04879094307, 0.009654181831
9447, 0.05115042495, 0.04884957505, 0.009654181831
9448, 0.05120905693, 0.04891136025, 0.009654181831
9449, 0.05126437496, 0.04897612935, 0.009654181831
9450, 0.05131622743, 0.0490437048, 0.009654181831
9451, 0.05136447221, 0.04911390139, 0.009654181831
9452, 0.05140897706, 0.04918652671, 0.009654181831
9453, 0.05144962001, 0.04926138171, 0.009654181831
9454, 0.05148628965, 0.04933826121, 0.009654181831
9455, 0.05151888547, 0.04941695449, 0.009654181831
9456, 0.05154731814, 0.04949724586, 0.009654181831
9457, 0.05157150971, 0.04957891524, 0.009654181831
9458, 0.05159139389, 0.04966173879, 0.009654181831
9459, 0.05160691616, 0.04974548948, 0.009654181831
9460, 0.05161803399, 0.04982993777, 0.009654181831
9461, 0.0516247169, 0.0499148522, 0.009654181831
9462, 0.05149842637, 0.05, 0.009708735418
9463, 0.05149637283, 0.05007842158, 0.009708735418
9464, 0.05149021784, 0.05015662821, 0.009708735418
9465, 0.05147997826, 0.05023440553, 0.009708735418
9466, 0.05146568216, 0.05031154036, 0.009708735418
9467, 0.05144736873, 0.05038782128, 0.009708735418
9468, 0.05142508817, 0.05046303921, 0.009708735418
9469, 0.05139890153, 0.05053698799, 0.009708735418
9470, 0.05136888061, 0.05060946491, 0.009708735418
9471, 0.05133510767, 0.05068027134, 0.009708735418
9472, 0.05129767531, 0.05074921319, 0.009708735418
9473, 0.0512566861, 0.05081610149, 0.009708735418
9474, 0.0512122524, 0.05088075292, 0.009708735418
9475, 0.051164496, 0.05094299027, 0.009708735418
9476, 0.05111354781, 0.05100264295, 0.009708735418
9477, 0.05105954745, 0.05105954745, 0.009708735418
9478, 0.05100264295, 0.05111354781, 0.009708735418
9479, 0.05094299027, 0.051164496, 0.009708735418
9480, 0.05088075292, 0.0512122524, 0.009708735418
9481, 0.05081610149, 0.0512566861, 0.009708735418
9482, 0.05074921319, 0.05129767531, 0.009708735418
9483, 0.05068027134, 0.05133510767, 0.009708735418
9484, 0.05060946491, 0.05136888061, 0.009708735418
9485, 0.05053698799, 0.05139890153, 0.009708735418
9486, 0.05046303921, 0.05142508817, 0.009708735418
9487, 0.05038782128, 0.05144736873, 0.009708735418
9488, 0.05031154036, 0.05146568216, 0.009708735418
9489, 0.05023440553, 0.05147997826, 0.009708735418
9490, 0.05015662821, 0.05149021784, 0.009708735418
9491, 0.05007842158, 0.05149637283, 0.009708735418
9492, 0.05, 0.05149842637, 0.009708735418
9493, 0.04992157842, 0.05149637283, 0.009708735418
9494, 0.04984337179, 0.05149021784, 0.009708735418
9495, 0.04976559447, 0.05147997826, 0.009708735418
9496, 0.04968845964, 0.05146568216, 0.009708735418
9497, 0.04961217872, 0.05144736873, 0.009708735418
9498, 0.04953696079, 0.05142508817, 0.009708735418
9499, 0.04946301201, 0.05139890153, 0.009708735418
9500, 0.04939053509, 0.05136888061, 0.009708735418
9501, 0.04931972866, 0.05133510767, 0.009708735418
9502, 0.04925078681, 0.05129767531, 0.009708735418
9503, 0.04918389851, 0.0512566861, 0.009708735418
9504, 0.04911924708, 0.0512122524, 0.009708735418
9505, 0.04905700973, 0.051164496, 0.009708735418
9506, 0.04899735705, 0.05111354781, 0.009708735418
9507, 0.04894045255, 0.05105954745, 0.009708735418
9508, 0.04888645219, 0.05100264295, 0.009708735418
9509, 0.048835504, 0.05094299027, 0.009708735418
9510, 0.0487877476, 0.05088075292, 0.009708735418
9511, 0.0487433139, 0.05081610149, 0.009708735418
9512, 0.04870232469, 0.05074921319, 0.009708735418
9513, 0.04866489233, 0.05068027134, 0.009708735418
9514, 0.04863111939, 0.05060946491, 0.009708735418
9515, 0.04860109847, 0.05053698799, 0.009708735418
9516, 0.04857491183, 0.05046303921, 0.009708735418
9517, 0.04855263127, 0.05038782128, 0.009708735418
9518, 0.04853431784, 0.05031154036, 0.009708735418
9519, 0.04852002174, 0.05023440553, 0.009708735418
9520, 0.04850978216, 0.05015662821, 0.009708735418
9521, 0.04850362717, 0.05007842158, 0.009708735418
9522, 0.04850157363, 0.05, 0.009708735418
9523, 0.04850362717, 0.04992157842, 0.009708735418
9524, 0.04850978216, 0.04984337179, 0.009708735418
9525, 0.04852002174, 0.04976559447, 0.009708735418
9526, 0.04853431784, 0.04968845964, 0.009708735418
9527, 0.04855263127, 0.04961217872, 0.009708735418
9528, 0.04857491183, 0.04953696079, 0.009708735418
9529, 0.04860109847, 0.04946301201, 0.009708735418
9530, 0.04863111939, 0.04939053509, 0.009708735418
9531, 0.04866489233, 0.04931972866, 0.009708735418
9532, 0.04870232469, 0.04925078681, 0.009708735418
9533, 0.0487433139, 0.04918389851, 0.009708735418
9534, 0.0487877476, 0.04911924708, 0.009708735418
9535, 0.048835504, 0.04905700973, 0.009708735418
9536, 0.04888645219, 0.04899735705, 0.009708735418
9537, 0.04894045255, 0.04894045255, 0.009708735418
9538, 0.04899735705, 0.04888645219, 0.009708735418
9539, 0.04905700973, 0.048835504, 0.009708735418
9540, 0.04911924708, 0.0487877476, 0.009708735418
9541, 0.04918389851, 0.0487433139, 0.009708735418
9542, 0.04925078681, 0.04870232469, 0.009708735418
9543, 0.04931972866, 0.04866489233, 0.009708735418
9544, 0.04939053509, 0.04863111939, 0.009708735418
9545, 0.04946301201, 0.04860109847, 0.009708735418
9546, 0.04953696079, 0.04857491183, 0.009708735418
9547, 0.04961217872, 0.04855263127, 0.009708735418
9548, 0.04968845964, 0.04853431784, 0.009708735418
9549, 0.04976559447, 0.04852002174, 0.009708735418
9550, 0.04984337179, 0.04850978216, 0.009708735418
9551, 0.04992157842, 0.04850362717, 0.009708735418
9552, 0.05, 0.04850157363, 0.009708735418
9553, 0.05007842158, 0.04850362717, 0.009708735418
9554, 0.05015662821, 0.04850978216, 0.009708735418
9555, 0.05023440553, 0.04852002174, 0.009708735418
9556, 0.05031154036, 0.04853431784, 0.009708735418
9557, 0.05038782128, 0.04855263127, 0.009708735418
9558, 0.05046303921, 0.04857491183, 0.009708735418
9559, 0.05053698799, 0.04860109847, 0.009708735418
9560, 0.05060946491, 0.04863111939, 0.009708735418
9561, 0.05068027134, 0.04866489233, 0.009708735418
9562, 0.05074921319, 0.04870232469, 0.009708735418
9563, 0.05081610149, 0.0487433139, 0.009708735418
9564, 0.05088075292, 0.0487877476, 0.009708735418
9565, 0.05094299027, 0.048835504, 0.009708735418
9566, 0.05100264295, 0.04888645219, 0.009708735418
9567, 0.05105954745, 0.04894045255, 0.009708735418
9568, 0.05111354781, 0.04899735705, 0.009708735418
9569, 0.051164496, 0.04905700973, 0.009708735418
9570, 0.0512122524, 0.04911924708, 0.009708735418
9571, 0.0512566861, 0.04918389851, 0.009708735418
9572, 0.05129767531, 0.04925078681, 0.009708735418
9573, 0.05133510767, 0.04931972866, 0.009708735418
9574, 0.05136888061, 0.04939053509, 0.009708735418
9575, 0.05139890153, 0.04946301201, 0.009708735418
9576, 0.05142508817, 0.04953696079, 0.009708735418
9577, 0.05144736873, 0.04961217872, 0.009708735418
9578, 0.05146568216, 0.04968845964, 0.009708735418
9579, 0.05147997826, 0.04976559447, 0.009708735418
9580, 0.05149021784, 0.04984337179, 0.009708735418
9581, 0.05149637283, 0.04992157842, 0.009708735418
9582, 0.05136808057, 0.05, 0.009758770483
9583, 0.05136620567, 0.05007159981, 0.009758770483
9584, 0.05136058608, 0.05014300336, 0.009758770483
9585, 0.05135123723, 0.05021401495, 0.009758770483
9586, 0.05133818473, 0.05028443995, 0.009758770483
9587, 0.05132146436, 0.05035408531, 0.009758770483
9588, 0.05130112194, 0.05042276015, 0.009758770483
9589, 0.05127721325, 0.05049027623, 0.009758770483
9590, 0.05124980379, 0.0505564485, 0.009758770483
9591, 0.05121896872, 0.05062109558, 0.009758770483
9592, 0.05118479253, 0.05068404029, 0.009758770483
9593, 0.05114736891, 0.05074511008, 0.009758770483
9594, 0.05110680043, 0.05080413758, 0.009758770483
9595, 0.05106319829, 0.050860961, 0.009758770483
9596, 0.051016682, 0.05091542458, 0.009758770483
9597, 0.05096737905, 0.05096737905, 0.009758770483
9598, 0.05091542458, 0.051016682, 0.009758770483
9599, 0.050860961, 0.05106319829, 0.009758770483
9600, 0.05080413758, 0.05110680043, 0.009758770483
9601, 0.05074511008, 0.05114736891, 0.009758770483
9602, 0.05068404029, 0.05118479253, 0.009758770483
9603, 0.05062109558, 0.05121896872, 0.009758770483
9604, 0.0505564485, 0.05124980379, 0.009758770483
9605, 0.05049027623, 0.05127721325, 0.009758770483
9606, 0.05042276015, 0.05130112194, 0.009758770483
9607, 0.05035408531, 0.05132146436, 0.009758770483
9608, 0.05028443995, 0.05133818473, 0.009758770483
9609, 0.05021401495, 0.05135123723, 0.009758770483
9610, 0.05014300336, 0.05136058608, 0.009758770483
9611, 0.05007159981, 0.05136620567, 0.009758770483
9612, 0.05, 0.05136808057, 0.009758770483
9613, 0.04992840019, 0.05136620567, 0.009758770483
9614, 0.04985699664, 0.05136058608, 0.009758770483
9615, 0.04978598505, 0.05135123723, 0.009758770483
9616, 0.04971556005, 0.05133818473, 0.009758770483
9617, 0.04964591469, 0.05132146436, 0.009758770483
9618, 0.04957723985, 0.05130112194, 0.009758770483
9619, 0.04950972377, 0.05127721325, 0.009758770483
9620, 0.0494435515, 0.05124980379, 0.009758770483
9621, 0.04937890442, 0.05121896872, 0.009758770483
9622, 0.04931595971, 0.05118479253, 0.009758770483
9623, 0.04925488992, 0.05114736891, 0.009758770483
9624, 0.04919586242, 0.05110680043, 0.009758770483
9625, 0.049139039, 0.05106319829, 0.009758770483
9626, 0.04908457542, 0.051016682, 0.009758770483
9627, 0.04903262095, 0.05096737905, 0.009758770483
9628, 0.048983318, 0.05091542458, 0.009758770483
9629, 0.04893680171, 0.050860961, 0.009758770483
9630, 0.04889319957, 0.05080413758, 0.009758770483
9631, 0.04885263109, 0.05074511008, 0.009758770483
9632, 0.04881520747, 0.05068404029, 0.009758770483
9633, 0.04878103128, 0.05062109558, 0.009758770483
9634, 0.04875019621, 0.0505564485, 0.009758770483
9635, 0.04872278675, 0.05049027623, 0.009758770483
9636, 0.04869887806, 0.05042276015, 0.009758770483
9637, 0.04867853564, 0.05035408531, 0.009758770483
9638, 0.04866181527, 0.05028443995, 0.009758770483
9639, 0.04864876277, 0.05021401495, 0.009758770483
9640, 0.04863941392, 0.05014300336, 0.009758770483
9641, 0.04863379433, 0.05007159981, 0.009758770483
9642, 0.04863191943, 0.05, 0.009758770483
9643, 0.04863379433, 0.04992840019, 0.009758770483
9644, 0.04863941392, 0.04985699664, 0.009758770483
9645, 0.04864876277, 0.04978598505, 0.009758770483
9646, 0.04866181527, 0.04971556005, 0.009758770483
9647, 0.04867853564, 0.04964591469, 0.009758770483
9648, 0.04869887806, 0.04957723985, 0.009758770483
9649, 0.04872278675, 0.04950972377, 0.009758770483
9650, 0.04875019621, 0.0494435515, 0.009758770483
9651, 0.04878103128, 0.04937890442, 0.009758770483
9652, 0.04881520747, 0.04931595971, 0.009758770483
9653, 0.04885263109, 0.04925488992, 0.009758770483
9654, 0.04889319957, 0.04919586242, 0.009758770483
9655, 0.04893680171, 0.049139039, 0.009758770483
9656, 0.048983318, 0.04908457542, 0.009758770483
9657, 0.04903262095, 0.04903262095, 0.009758770483
9658, 0.04908457542, 0.048983318, 0.009758770483
9659, 0.049139039, 0.04893680171, 0.009758770483
9660, 0.04919586242, 0.04889319957, 0.009758770483
9661, 0.04925488992, 0.04885263109, 0.009758770483
9662, 0.04931595971, 0.04881520747, 0.009758770483
9663, 0.04937890442, 0.04878103128, 0.009758770483
9664, 0.0494435515, 0.04875019621, 0.009758770483
9665, 0.04950972377, 0.04872278675, 0.009758770483
9666, 0.04957723985, 0.04869887806, 0.009758770483
9667, 0.04964591469, 0.04867853564, 0.009758770483
9668, 0.04971556005, 0.04866181527, 0.009758770483
9669, 0.04978598505, 0.04864876277, 0.009758770483
9670, 0.04985699664, 0.04863941392, 0.009758770483
9671, 0.04992840019, 0.04863379433, 0.009758770483
9672, 0.05, 0.04863191943, 0.009758770483
9673, 0.05007159981, 0.04863379433, 0.009758770483
9674, 0.05014300336, 0.04863941392, 0.009758770483
9675, 0.05021401495, 0.04864876277, 0.009758770483
9676, 0.05028443995, 0.04866181527, 0.009758770483
9677, 0.05035408531, 0.04867853564, 0.009758770483
9678, 0.05042276015, 0.04869887806, 0.009758770483
9679, 0.05049027623, 0.04872278675, 0.009758770483
9680, 0.0505564485, 0.04875019621, 0.009758770483
9681, 0.05062109558, 0.04878103128, 0.009758770483
9682, 0.05068404029, 0.04881520747, 0.009758770483
9683, 0.05074511008, 0.04885263109, 0.009758770483
9684, 0.05080413758, 0.04889319957, 0.009758770483
9685, 0.050860961, 0.04893680171, 0.009758770483
9686, 0.05091542458, 0.048983318, 0.009758770483
9687, 0.05096737905, 0.04903262095, 0.009758770483
9688, 0.051016682, 0.04908457542, 0.009758770483
9689, 0.05106319829, 0.049139039, 0.009758770483
9690, 0.05110680043, 0.04919586242, 0.009758770483
9691, 0.05114736891, 0.04925488992, 0.009758770483
9692, 0.05118479253, 0.04931595971, 0.009758770483
9693, 0.05121896872, 0.04937890442, 0.009758770483
9694, 0.05124980379, 0.0494435515, 0.009758770483
9695, 0.05127721325, 0.04950972377, 0.009758770483
9696, 0.05130112194, 0.04957723985, 0.009758770483
9697, 0.05132146436, 0.04964591469, 0.009758770483
9698, 0.05133818473, 0.04971556005, 0.009758770483
9699, 0.05135123723, 0.04978598505, 0.009758770483
9700, 0.05136058608, 0.04985699664, 0.009758770483
9701, 0.05136620567, 0.04992840019, 0.009758770483
9702, 0.05123606798, 0.05, 0.009804226065
9703, 0.05123437399, 0.0500646908, 0.009804226065
9704, 0.05122929667, 0.05012920429, 0.009804226065
9705, 0.05122084993, 0.05019336363, 0.009804226065
9706, 0.05120905693, 0.05025699298, 0.009804226065
9707, 0.05119394998, 0.05031991793, 0.009804226065
9708, 0.0511755705, 0.05038196601, 0.009804226065
9709, 0.05115396887, 0.05044296715, 0.009804226065
9710, 0.05112920429, 0.05050275414, 0.009804226065
9711, 0.05110134463, 0.05056116312, 0.009804226065
9712, 0.05107046627, 0.05061803399, 0.009804226065
9713, 0.05103665383, 0.05067321087, 0.009804226065
9714, 0.051, 0.05072654253, 0.009804226065
9715, 0.05096060524, 0.05077788278, 0.009804226065
9716, 0.05091857752, 0.05082709092, 0.009804226065
9717, 0.05087403205, 0.05087403205, 0.009804226065
9718, 0.05082709092, 0.05091857752, 0.009804226065
9719, 0.05077788278, 0.05096060524, 0.009804226065
9720, 0.05072654253, 0.051, 0.009804226065
9721, 0.05067321087, 0.05103665383, 0.009804226065
9722, 0.05061803399, 0.05107046627, 0.009804226065
9723, 0.05056116312, 0.05110134463, 0.009804226065
9724, 0.05050275414, 0.05112920429, 0.009804226065
9725, 0.05044296715, 0.05115396887, 0.009804226065
9726, 0.05038196601, 0.0511755705, 0.009804226065
9727, 0.05031991793, 0.05119394998, 0.009804226065
9728, 0.05025699298, 0.05120905693, 0.009804226065
9729, 0.05019336363, 0.05122084993, 0.009804226065
9730, 0.05012920429, 0.05122929667, 0.009804226065
9731, 0.0500646908, 0.05123437399, 0.009804226065
9732, 0.05, 0.05123606798, 0.009804226065
9733, 0.0499353092, 0.05123437399, 0.009804226065
9734, 0.04987079571, 0.05122929667, 0.009804226065
9735, 0.04980663637, 0.05122084993, 0.009804226065
9736, 0.04974300702, 0.05120905693, 0.009804226065
9737, 0.04968008207, 0.05119394998, 0.009804226065
9738, 0.04961803399, 0.0511755705, 0.009804226065
9739, 0.04955703285, 0.05115396887, 0.009804226065
9740, 0.04949724586, 0.05112920429, 0.009804226065
9741, 0.04943883688, 0.05110134463, 0.009804226065
9742, 0.04938196601, 0.05107046627, 0.009804226065
9743, 0.04932678913, 0.05103665383, 0.009804226065
9744, 0.04927345747, 0.051, 0.009804226065
9745, 0.04922211722, 0.05096060524, 0.009804226065
9746, 0.04917290908, 0.05091857752, 0.009804226065
9747, 0.04912596795, 0.05087403205, 0.009804226065
9748, 0.04908142248, 0.05082709092, 0.009804226065
9749, 0.04903939476, 0.05077788278, 0.009804226065
9750, 0.049, 0.05072654253, 0.009804226065
9751, 0.04896334617, 0.05067321087, 0.009804226065
9752, 0.04892953373, 0.05061803399, 0.009804226065
9753, 0.04889865537, 0.05056116312, 0.009804226065
9754, 0.04887079571, 0.05050275414, 0.009804226065
9755, 0.04884603113, 0.05044296715, 0.009804226065
9756, 0.0488244295, 0.05038196601, 0.009804226065
9757, 0.04880605002, 0.05031991793, 0.009804226065
9758, 0.04879094307, 0.05025699298, 0.009804226065
9759, 0.04877915007, 0.05019336363, 0.009804226065
9760, 0.04877070333, 0.05012920429, 0.009804226065
9761, 0.04876562601, 0.0500646908, 0.009804226065
9762, 0.04876393202, 0.05, 0.009804226065
9763, 0.04876562601, 0.0499353092, 0.009804226065
9764, 0.04877070333, 0.04987079571, 0.009804226065
9765, 0.04877915007, 0.04980663637, 0.009804226065
9766, 0.04879094307, 0.04974300702, 0.009804226065
9767, 0.04880605002, 0.04968008207, 0.009804226065
9768, 0.0488244295, 0.04961803399, 0.009804226065
9769, 0.04884603113, 0.04955703285, 0.009804226065
9770, 0.04887079571, 0.04949724586, 0.009804226065
9771, 0.04889865537, 0.04943883688, 0.009804226065
9772, 0.04892953373, 0.04938196601, 0.009804226065
9773, 0.04896334617, 0.04932678913, 0.009804226065
9774, 0.049, 0.04927345747, 0.009804226065
9775, 0.04903939476, 0.04922211722, 0.009804226065
9776, 0.04908142248, 0.04917290908, 0.009804226065
9777, 0.04912596795, 0.04912596795, 0.009804226065
9778, 0.04917290908, 0.04908142248, 0.009804226065
9779, 0.04922211722, 0.04903939476, 0.009804226065
9780, 0.04927345747, 0.049, 0.009804226065
9781, 0.04932678913, 0.04896334617, 0.009804226065
9782, 0.04938196601, 0.04892953373, 0.009804226065
9783, 0.04943883688, 0.04889865537, 0.009804226065
9784, 0.04949724586, 0.04887079571, 0.009804226065
9785, 0.04955703285, 0.04884603113, 0.009804226065
9786, 0.04961803399, 0.0488244295, 0.009804226065
9787, 0.04968008207, 0.04880605002, 0.009804226065
9788, 0.04974300702, 0.04879094307, 0.009804226065
9789, 0.04980663637, 0.04877915007, 0.009804226065
9790, 0.04987079571, 0.04877070333, 0.009804226065
9791, 0.0499353092, 0.04876562601, 0.009804226065
9792, 0.05, 0.04876393202, 0.009804226065
9793, 0.0500646908, 0.04876562601, 0.009804226065
9794, 0.05012920429, 0.04877070333, 0.009804226065
9795, 0.05019336363, 0.04877915007, 0.009804226065
9796, 0.05025699298, 0.04879094307, 0.009804226065
9797, 0.05031991793, 0.04880605002, 0.009804226065
9798, 0.05038196601, 0.0488244295, 0.009804226065
9799, 0.05044296715, 0.04884603113, 0.009804226065
9800, 0.05050275414, 0.04887079571, 0.009804226065
9801, 0.05056116312, 0.04889865537, 0.009804226065
9802, 0.05061803399, 0.04892953373, 0.009804226065
9803, 0.05067321087, 0.04896334617, 0.009804226065
9804, 0.05072654253, 0.049, 0.009804226065
9805, 0.05077788278, 0.04903939476, 0.009804226065
9806, 0.05082709092, 0.04908142248, 0.009804226065
9807, 0.05087403205, 0.04912596795, 0.009804226065
9808, 0.05091857752, 0.04917290908, 0.009804226065
9809, 0.05096060524, 0.04922211722, 0.009804226065
9810, 0.051, 0.04927345747, 0.009804226065
9811, 0.05103665383, 0.04932678913, 0.009804226065
9812, 0.05107046627, 0.04938196601, 0.009804226065
9813, 0.05110134463, 0.04943883688, 0.009804226065
9814, 0.05112920429, 0.04949724586, 0.009804226065
9815, 0.05115396887, 0.04955703285, 0.009804226065
9816, 0.0511755705, 0.04961803399, 0.009804226065
9817, 0.05119394998, 0.04968008207, 0.009804226065
9818, 0.05120905693, 0.04974300702, 0.009804226065
9819, 0.05122084993, 0.04980663637, 0.009804226065
9820, 0.05122929667, 0.04987079571, 0.009804226065
9821, 0.05123437399, 0.0499353092, 0.009804226065
9822, 0.05110254942, 0.05, 0.009845046784
9823, 0.05110103842, 0.05005770298, 0.009845046784
9824, 0.05109650954, 0.0501152478, 0.009845046784
9825, 0.05108897521, 0.05017247673, 0.009845046784
9826, 0.05107845607, 0.05022923291, 0.009845046784
9827, 0.05106498096, 0.05028536079, 0.009845046784
9828, 0.05104858681, 0.05034070651, 0.009845046784
9829, 0.05102931856, 0.05039511838, 0.009845046784
9830, 0.05100722902, 0.05044844725, 0.009845046784
9831, 0.05098237873, 0.05050054696, 0.009845046784
9832, 0.05095483581, 0.05055127471, 0.009845046784
9833, 0.05092467575, 0.05060049145, 0.009845046784
9834, 0.05089198122, 0.05064806229, 0.009845046784
9835, 0.05085684183, 0.05069385683, 0.009845046784
9836, 0.0508193539, 0.05073774956, 0.009845046784
9837, 0.05077962017, 0.05077962017, 0.009845046784
9838, 0.05073774956, 0.0508193539, 0.009845046784
9839, 0.05069385683, 0.05085684183, 0.009845046784
9840, 0.05064806229, 0.05089198122, 0.009845046784
9841, 0.05060049145, 0.05092467575, 0.009845046784
9842, 0.05055127471, 0.05095483581, 0.009845046784
9843, 0.05050054696, 0.05098237873, 0.009845046784
9844, 0.05044844725, 0.05100722902, 0.009845046784
9845, 0.05039511838, 0.05102931856, 0.009845046784
9846, 0.05034070651, 0.05104858681, 0.009845046784
9847, 0.05028536079, 0.05106498096, 0.009845046784
9848, 0.05022923291, 0.05107845607, 0.009845046784
9849, 0.05017247673, 0.05108897521, 0.009845046784
9850, 0.0501152478, 0.05109650954, 0.009845046784
9851, 0.05005770298, 0.05110103842, 0.009845046784
9852, 0.05, 0.05110254942, 0.009845046784
9853, 0.04994229702, 0.05110103842, 0.009845046784
9854, 0.0498847522, 0.05109650954, 0.009845046784
9855, 0.04982752327, 0.05108897521, 0.009845046784
9856, 0.04977076709, 0.05107845607, 0.009845046784
9857, 0.04971463921, 0.05106498096, 0.009845046784
9858, 0.04965929349, 0.05104858681, 0.009845046784
9859, 0.04960488162, 0.05102931856, 0.009845046784
9860, 0.04955155275, 0.05100722902, 0.009845046784
9861, 0.04949945304, 0.05098237873, 0.009845046784
9862, 0.04944872529, 0.05095483581, 0.009845046784
9863, 0.04939950855, 0.05092467575, 0.009845046784
9864, 0.04935193771, 0.05089198122, 0.009845046784
9865, 0.04930614317, 0.05085684183, 0.009845046784
9866, 0.04926225044, 0.0508193539, 0.009845046784
9867, 0.04922037983, 0.05077962017, 0.009845046784
9868, 0.0491806461, 0.05073774956, 0.009845046784
9869, 0.04914315817, 0.05069385683, 0.009845046784
9870, 0.04910801878, 0.05064806229, 0.009845046784
9871, 0.04907532425, 0.05060049145, 0.009845046784
9872, 0.04904516419, 0.05055127471, 0.009845046784
9873, 0.04901762127, 0.05050054696, 0.009845046784
9874, 0.04899277098, 0.05044844725, 0.009845046784
9875, 0.04897068144, 0.05039511838, 0.009845046784
9876, 0.04895141319, 0.05034070651, 0.009845046784
9877, 0.04893501904, 0.05028536079, 0.009845046784
9878, 0.04892154393, 0.05022923291, 0.009845046784
9879, 0.04891102479, 0.05017247673, 0.009845046784
9880, 0.04890349046, 0.0501152478, 0.009845046784
9881, 0.04889896158, 0.05005770298, 0.009845046784
9882, 0.04889745058, 0.05, 0.009845046784
9883, 0.04889896158, 0.04994229702, 0.009845046784
9884, 0.04890349046, 0.0498847522, 0.009845046784
9885, 0.04891102479, 0.04982752327, 0.009845046784
9886, 0.04892154393, 0.04977076709, 0.009845046784
9887, 0.04893501904, 0.04971463921, 0.009845046784
9888, 0.04895141319, 0.04965929349, 0.009845046784
9889, 0.04897068144, 0.04960488162, 0.009845046784
9890, 0.04899277098, 0.04955155275, 0.009845046784
9891, 0.04901762127, 0.04949945304, 0.009845046784
9892, 0.04904516419, 0.04944872529, 0.009845046784
9893, 0.04907532425, 0.04939950855, 0.009845046784
9894, 0.04910801878, 0.04935193771, 0.009845046784
9895, 0.04914315817, 0.04930614317, 0.009845046784
9896, 0.0491806461, 0.04926225044, 0.009845046784
9897, 0.04922037983, 0.04922037983, 0.009845046784
9898, 0.04926225044, 0.0491806461, 0.009845046784
9899, 0.04930614317, 0.04914315817, 0.009845046784
9900, 0.04935193771, 0.04910801878, 0.009845046784
9901, 0.04939950855, 0.04907532425, 0.009845046784
9902, 0.04944872529, 0.04904516419, 0.009845046784
9903, 0.04949945304, 0.04901762127, 0.009845046784
9904, 0.04955155275, 0.04899277098, 0.009845046784
9905, 0.04960488162, 0.04897068144, 0.009845046784
9906, 0.04965929349, 0.04895141319, 0.009845046784
9907, 0.04971463921, 0.04893501904, 0.009845046784
9908, 0.04977076709, 0.04892154393, 0.009845046784
9909, 0.04982752327, 0.04891102479, 0.009845046784
9910, 0.0498847522, 0.04890349046, 0.009845046784
9911, 0.04994229702, 0.04889896158, 0.009845046784
9912, 0.05, 0.04889745058, 0.009845046784
9913, 0.05005770298, 0.04889896158, 0.009845046784
9914, 0.0501152478, 0.04890349046, 0.009845046784
9915, 0.05017247673, 0.04891102479, 0.009845046784
9916, 0.05022923291, 0.04892154393, 0.009845046784
9917, 0.05028536079, 0.04893501904, 0.009845046784
9918, 0.05034070651, 0.04895141319, 0.009845046784
9919, 0.05039511838, 0.04897068144, 0.009845046784
9920, 0.05044844725, 0.04899277098, 0.009845046784
9921, 0.05050054696, 0.04901762127, 0.009845046784
9922, 0.05055127471, 0.04904516419, 0.009845046784
9923, 0.05060049145, 0.04907532425, 0.009845046784
9924, 0.05064806229, 0.04910801878, 0.009845046784
9925, 0.05069385683, 0.04914315817, 0.009845046784
9926, 0.05073774956, 0.0491806461, 0.009845046784
9927, 0.05077962017, 0.04922037983, 0.009845046784
9928, 0.0508193539, 0.04926225044, 0.009845046784
9929, 0.05085684183, 0.04930614317, 0.009845046784
9930, 0.05089198122, 0.04935193771, 0.009845046784
9931, 0.05092467575, 0.04939950855, 0.009845046784
9932, 0.05095483581, 0.04944872529, 0.009845046784
9933, 0.05098237873, 0.04949945304, 0.009845046784
9934, 0.05100722902, 0.04955155275, 0.009845046784
9935, 0.05102931856, 0.04960488162, 0.009845046784
9936, 0.05104858681, 0.04965929349, 0.009845046784
9937, 0.05106498096, 0.04971463921, 0.009845046784
9938, 0.05107845607, 0.04977076709, 0.009845046784
9939, 0.05108897521, 0.04982752327, 0.009845046784
9940, 0.05109650954, 0.0498847522, 0.009845046784
9941, 0.05110103842, 0.04994229702, 0.009845046784
9942, 0.05096768758, 0.05, 0.009881182905
9943, 0.0509663614, 0.05005064485, 0.009881182905
9944, 0.05096238649, 0.0501011509, 0.009881182905
9945, 0.05095577374, 0.05015137969, 0.009881182905
9946, 0.05094654129, 0.05020119356, 0.009881182905
9947, 0.05093471443, 0.05025045598, 0.009881182905
9948, 0.05092032558, 0.05029903191, 0.009881182905
9949, 0.05090341419, 0.05034678821, 0.009881182905
9950, 0.0508840266, 0.050393594, 0.009881182905
9951, 0.05086221595, 0.05043932097, 0.009881182905
9952, 0.05083804203, 0.05048384379, 0.009881182905
9953, 0.05081157109, 0.05052704043, 0.009881182905
9954, 0.0507828757, 0.05056879249, 0.009881182905
9955, 0.0507520345, 0.05060898553, 0.009881182905
9956, 0.05071913202, 0.05064750938, 0.009881182905
9957, 0.05068425845, 0.05068425845, 0.009881182905
9958, 0.05064750938, 0.05071913202, 0.009881182905
9959, 0.05060898553, 0.0507520345, 0.009881182905
9960, 0.05056879249, 0.0507828757, 0.009881182905
9961, 0.05052704043, 0.05081157109, 0.009881182905
9962, 0.05048384379, 0.05083804203, 0.009881182905
9963, 0.05043932097, 0.05086221595, 0.009881182905
9964, 0.050393594, 0.0508840266, 0.009881182905
9965, 0.05034678821, 0.05090341419, 0.009881182905
9966, 0.05029903191, 0.05092032558, 0.009881182905
9967, 0.05025045598, 0.05093471443, 0.009881182905
9968, 0.05020119356, 0.05094654129, 0.009881182905
9969, 0.05015137969, 0.05095577374, 0.009881182905
9970, 0.0501011509, 0.05096238649, 0.009881182905
9971, 0.05005064485, 0.0509663614, 0.009881182905
9972, 0.05, 0.05096768758, 0.009881182905
9973, 0.04994935515, 0.0509663614, 0.009881182905
9974, 0.0498988491, 0.05096238649, 0.009881182905
9975, 0.04984862031, 0.05095577374, 0.009881182905
9976, 0.04979880644, 0.05094654129, 0.009881182905
9977, 0.04974954402, 0.05093471443, 0.009881182905
9978, 0.04970096809, 0.05092032558, 0.009881182905
9979, 0.04965321179, 0.05090341419, 0.009881182905
9980, 0.049606406, 0.0508840266, 0.009881182905
9981, 0.04956067903, 0.05086221595, 0.009881182905
9982, 0.04951615621, 0.05083804203, 0.009881182905
9983, 0.04947295957, 0.05081157109, 0.009881182905
9984, 0.04943120751, 0.0507828757, 0.009881182905
9985, 0.04939101447, 0.0507520345, 0.009881182905
9986, 0.04935249062, 0.05071913202, 0.009881182905
9987, 0.04931574155, 0.05068425845, 0.009881182905
9988, 0.04928086798, 0.05064750938, 0.009881182905
9989, 0.0492479655, 0.05060898553, 0.009881182905
9990, 0.0492171243, 0.05056879249, 0.009881182905
9991, 0.04918842891, 0.05052704043, 0.009881182905
9992, 0.04916195797, 0.05048384379, 0.009881182905
9993, 0.04913778405, 0.05043932097, 0.009881182905
9994, 0.0491159734, 0.050393594, 0.009881182905
9995, 0.04909658581, 0.05034678821, 0.009881182905
9996, 0.04907967442, 0.05029903191, 0.009881182905
9997, 0.04906528557, 0.05025045598, 0.009881182905
9998, 0.04905345871, 0.05020119356, 0.009881182905
9999, 0.04904422626, 0.05015137969, 0.009881182905
10000, 0.04903761351, 0.0501011509, 0.009881182905
10001, 0.0490336386, 0.05005064485, 0.009881182905
10002, 0.04903231242, 0.05, 0.009881182905
10003, 0.0490336386, 0.04994935515, 0.009881182905
10004, 0.04903761351, 0.0498988491, 0.009881182905
10005, 0.04904422626, 0.04984862031, 0.009881182905
10006, 0.04905345871, 0.04979880644, 0.009881182905
10007, 0.04906528557, 0.04974954402, 0.009881182905
10008, 0.04907967442, 0.04970096809, 0.009881182905
10009, 0.04909658581, 0.04965321179, 0.009881182905
10010, 0.0491159734, 0.049606406, 0.009881182905
10011, 0.04913778405, 0.04956067903, 0.009881182905
10012, 0.04916195797, 0.04951615621, 0.009881182905
10013, 0.04918842891, 0.04947295957, 0.009881182905
10014, 0.0492171243, 0.04943120751, 0.009881182905
10015, 0.0492479655, 0.04939101447, 0.009881182905
10016, 0.04928086798, 0.04935249062, 0.009881182905
10017, 0.04931574155, 0.04931574155, 0.009881182905
10018, 0.04935249062, 0.04928086798, 0.009881182905
10019, 0.04939101447, 0.0492479655, 0.009881182905
10020, 0.04943120751, 0.0492171243, 0.009881182905
10021, 0.04947295957, 0.04918842891, 0.009881182905
10022, 0.04951615621, 0.04916195797, 0.009881182905
10023, 0.04956067903, 0.04913778405, 0.009881182905
10024, 0.049606406, 0.0491159734, 0.009881182905
10025, 0.04965321179, 0.04909658581, 0.009881182905
10026, 0.04970096809, 0.04907967442, 0.009881182905
10027, 0.04974954402, 0.04906528557, 0.009881182905
10028, 0.04979880644, 0.04905345871, 0.009881182905
10029, 0.04984862031, 0.04904422626, 0.009881182905
10030, 0.0498988491, 0.04903761351, 0.009881182905
10031, 0.04994935515, 0.0490336386, 0.009881182905
10032, 0.05, 0.04903231242, 0.009881182905
10033, 0.05005064485, 0.0490336386, 0.009881182905
10034, 0.0501011509, 0.04903761351, 0.009881182905
10035, 0.05015137969, 0.04904422626, 0.009881182905
10036, 0.05020119356, 0.04905345871, 0.009881182905
10037, 0.05025045598, 0.04906528557, 0.009881182905
10038, 0.05029903191, 0.04907967442, 0.009881182905
10039, 0.05034678821, 0.04909658581, 0.009881182905
10040, 0.050393594, 0.0491159734, 0.009881182905
10041, 0.05043932097, 0.04913778405, 0.009881182905
10042, 0.05048384379, 0.04916195797, 0.009881182905
10043, 0.05052704043, 0.04918842891, 0.009881182905
10044, 0.05056879249, 0.0492171243, 0.009881182905
10045, 0.05060898553, 0.0492479655, 0.009881182905
10046, 0.05064750938, 0.04928086798, 0.009881182905
10047, 0.05068425845, 0.04931574155, 0.009881182905
10048, 0.05071913202, 0.04935249062, 0.009881182905
10049, 0.0507520345, 0.04939101447, 0.009881182905
10050, 0.0507828757, 0.04943120751, 0.009881182905
10051, 0.05081157109, 0.04947295957, 0.009881182905
10052, 0.05083804203, 0.04951615621, 0.009881182905
10053, 0.05086221595, 0.04956067903, 0.009881182905
10054, 0.0508840266, 0.049606406, 0.009881182905
10055, 0.05090341419, 0.04965321179, 0.009881182905
10056, 0.05092032558, 0.04970096809, 0.009881182905
10057, 0.05093471443, 0.04974954402, 0.009881182905
10058, 0.05094654129, 0.04979880644, 0.009881182905
10059, 0.05095577374, 0.04984862031, 0.009881182905
10060, 0.05096238649, 0.0498988491, 0.009881182905
10061, 0.0509663614, 0.04994935515, 0.009881182905
10062, 0.05083164676, 0.05, 0.009912590403
10063, 0.05083050702, 0.05004352503, 0.009912590403
10064, 0.05082709092, 0.05008693076, 0.009912590403
10065, 0.05082140781, 0.05013009822, 0.009912590403
10066, 0.05081347329, 0.05017290908, 0.009912590403
10067, 0.05080330909, 0.05021524602, 0.009912590403
10068, 0.05079094307, 0.05025699298, 0.009912590403
10069, 0.05077640914, 0.05029803555, 0.009912590403
10070, 0.05075974712, 0.05033826121, 0.009912590403
10071, 0.05074100269, 0.05037755973, 0.009912590403
10072, 0.05072022722, 0.05041582338, 0.009912590403
10073, 0.05069747766, 0.05045294729, 0.009912590403
10074, 0.05067281636, 0.0504888297, 0.009912590403
10075, 0.05064631092, 0.05052337227, 0.009912590403
10076, 0.05061803399, 0.0505564803, 0.009912590403
10077, 0.05058806307, 0.05058806307, 0.009912590403
10078, 0.0505564803, 0.05061803399, 0.009912590403
10079, 0.05052337227, 0.05064631092, 0.009912590403
10080, 0.0504888297, 0.05067281636, 0.009912590403
10081, 0.05045294729, 0.05069747766, 0.009912590403
10082, 0.05041582338, 0.05072022722, 0.009912590403
10083, 0.05037755973, 0.05074100269, 0.009912590403
10084, 0.05033826121, 0.05075974712, 0.009912590403
10085, 0.05029803555, 0.05077640914, 0.009912590403
10086, 0.05025699298, 0.05079094307, 0.009912590403
10087, 0.05021524602, 0.05080330909, 0.009912590403
10088, 0.05017290908, 0.05081347329, 0.009912590403
10089, 0.05013009822, 0.05082140781, 0.009912590403
10090, 0.05008693076, 0.05082709092, 0.009912590403
10091, 0.05004352503, 0.05083050702, 0.009912590403
10092, 0.05, 0.05083164676, 0.009912590403
10093, 0.04995647497, 0.05083050702, 0.009912590403
10094, 0.04991306924, 0.05082709092, 0.009912590403
10095, 0.04986990178, 0.05082140781, 0.009912590403
10096, 0.04982709092, 0.05081347329, 0.009912590403
10097, 0.04978475398, 0.05080330909, 0.009912590403
10098, 0.04974300702, 0.05079094307, 0.009912590403
10099, 0.04970196445, 0.05077640914, 0.009912590403
10100, 0.04966173879, 0.05075974712, 0.009912590403
10101, 0.04962244027, 0.05074100269, 0.009912590403
10102, 0.04958417662, 0.05072022722, 0.009912590403
10103, 0.04954705271, 0.05069747766, 0.009912590403
10104, 0.0495111703, 0.05067281636, 0.009912590403
10105, 0.04947662773, 0.05064631092, 0.009912590403
10106, 0.0494435197, 0.05061803399, 0.009912590403
10107, 0.04941193693, 0.05058806307, 0.009912590403
10108, 0.04938196601, 0.0505564803, 0.009912590403
10109, 0.04935368908, 0.05052337227, 0.009912590403
10110, 0.04932718364, 0.0504888297, 0.009912590403
10111, 0.04930252234, 0.05045294729, 0.009912590403
10112, 0.04927977278, 0.05041582338, 0.009912590403
10113, 0.04925899731, 0.05037755973, 0.009912590403
10114, 0.04924025288, 0.05033826121, 0.009912590403
10115, 0.04922359086, 0.05029803555, 0.009912590403
10116, 0.04920905693, 0.05025699298, 0.009912590403
10117, 0.04919669091, 0.05021524602, 0.009912590403
10118, 0.04918652671, 0.05017290908, 0.009912590403
10119, 0.04917859219, 0.05013009822, 0.009912590403
10120, 0.04917290908, 0.05008693076, 0.009912590403
10121, 0.04916949298, 0.05004352503, 0.009912590403
10122, 0.04916835324, 0.05, 0.009912590403
10123, 0.04916949298, 0.04995647497, 0.009912590403
10124, 0.04917290908, 0.04991306924, 0.009912590403
10125, 0.04917859219, 0.04986990178, 0.009912590403
10126, 0.04918652671, 0.04982709092, 0.009912590403
10127, 0.04919669091, 0.04978475398, 0.009912590403
10128, 0.04920905693, 0.04974300702, 0.009912590403
10129, 0.04922359086, 0.04970196445, 0.009912590403
10130, 0.04924025288, 0.04966173879, 0.009912590403
10131, 0.04925899731, 0.04962244027, 0.009912590403
10132, 0.04927977278, 0.04958417662, 0.009912590403
10133, 0.04930252234, 0.04954705271, 0.009912590403
10134, 0.04932718364, 0.0495111703, 0.009912590403
10135, 0.04935368908, 0.04947662773, 0.009912590403
10136, 0.04938196601, 0.0494435197, 0.009912590403
10137, 0.04941193693, 0.04941193693, 0.009912590403
10138, 0.0494435197, 0.04938196601, 0.009912590403
10139, 0.04947662773, 0.04935368908, 0.009912590403
10140, 0.0495111703, 0.04932718364, 0.009912590403
10141, 0.04954705271, 0.04930252234, 0.009912590403
10142, 0.04958417662, 0.04927977278, 0.009912590403
10143, 0.04962244027, 0.04925899731, 0.009912590403
10144, 0.04966173879, 0.04924025288, 0.009912590403
10145, 0.04970196445, 0.04922359086, 0.009912590403
10146, 0.04974300702, 0.04920905693, 0.009912590403
10147, 0.04978475398, 0.04919669091, 0.009912590403
10148, 0.04982709092, 0.04918652671, 0.009912590403
10149, 0.04986990178, 0.04917859219, 0.009912590403
10150, 0.04991306924, 0.04917290908, 0.009912590403
10151, 0.04995647497, 0.04916949298, 0.009912590403
10152, 0.05, 0.04916835324, 0.009912590403
10153, 0.05004352503, 0.04916949298, 0.009912590403
10154, 0.05008693076, 0.04917290908, 0.009912590403
10155, 0.05013009822, 0.04917859219, 0.009912590403
10156, 0.05017290908, 0.04918652671, 0.009912590403
10157, 0.05021524602, 0.04919669091, 0.009912590403
10158, 0.05025699298, 0.04920905693, 0.009912590403
10159, 0.05029803555, 0.04922359086, 0.009912590403
10160, 0.05033826121, 0.04924025288, 0.009912590403
10161, 0.05037755973, 0.04925899731, 0.009912590403
10162, 0.05041582338, 0.04927977278, 0.009912590403
10163, 0.05045294729, 0.04930252234, 0.009912590403
10164, 0.0504888297, 0.04932718364, 0.009912590403
10165, 0.05052337227, 0.04935368908, 0.009912590403
10166, 0.0505564803, 0.04938196601, 0.009912590403
10167, 0.05058806307, 0.04941193693, 0.009912590403
10168, 0.05061803399, 0.0494435197, 0.009912590403
10169, 0.05064631092, 0.04947662773, 0.009912590403
10170, 0.05067281636, 0.0495111703, 0.009912590403
10171, 0.05069747766, 0.04954705271, 0.009912590403
10172, 0.05072022722, 0.04958417662, 0.009912590403
10173, 0.05074100269, 0.04962244027, 0.009912590403
10174, 0.05075974712, 0.04966173879, 0.009912590403
10175, 0.05077640914, 0.04970196445, 0.009912590403
10176, 0.05079094307, 0.04974300702, 0.009912590403
10177, 0.05080330909, 0.04978475398, 0.009912590403
10178, 0.05081347329, 0.04982709092, 0.009912590403
10179, 0.05082140781, 0.04986990178, 0.009912590403
10180, 0.05082709092, 0.04991306924, 0.009912590403
10181, 0.05083050702, 0.04995647497, 0.009912590403
10182, 0.05069459271, 0.05, 0.009939231012
10183, 0.0506936408, 0.05003635217, 0.009939231012
10184, 0.05069078766, 0.05007260471, 0.009939231012
10185, 0.05068604112, 0.05010865824, 0.009939231012
10186, 0.05067941419, 0.05014441394, 0.009939231012
10187, 0.05067092504, 0.05017977382, 0.009939231012
10188, 0.05066059692, 0.05021464095, 0.009939231012
10189, 0.05064845816, 0.05024891977, 0.009939231012
10190, 0.05063454202, 0.05028251631, 0.009939231012
10191, 0.05061888664, 0.05031533849, 0.009939231012
10192, 0.05060153493, 0.05034729636, 0.009939231012
10193, 0.05058253446, 0.0503783023, 0.009939231012
10194, 0.05056193731, 0.05040827135, 0.009939231012
10195, 0.05053979992, 0.05043712136, 0.009939231012
10196, 0.05051618298, 0.05046477324, 0.009939231012
10197, 0.05049115122, 0.05049115122, 0.009939231012
10198, 0.05046477324, 0.05051618298, 0.009939231012
10199, 0.05043712136, 0.05053979992, 0.009939231012
10200, 0.05040827135, 0.05056193731, 0.009939231012
10201, 0.0503783023, 0.05058253446, 0.009939231012
10202, 0.05034729636, 0.05060153493, 0.009939231012
10203, 0.05031533849, 0.05061888664, 0.009939231012
10204, 0.05028251631, 0.05063454202, 0.009939231012
10205, 0.05024891977, 0.05064845816, 0.009939231012
10206, 0.05021464095, 0.05066059692, 0.009939231012
10207, 0.05017977382, 0.05067092504, 0.009939231012
10208, 0.05014441394, 0.05067941419, 0.009939231012
10209, 0.05010865824, 0.05068604112, 0.009939231012
10210, 0.05007260471, 0.05069078766, 0.009939231012
10211, 0.05003635217, 0.0506936408, 0.009939231012
10212, 0.05, 0.05069459271, 0.009939231012
10213, 0.04996364783, 0.0506936408, 0.009939231012
10214, 0.04992739529, 0.05069078766, 0.009939231012
10215, 0.04989134176, 0.05068604112, 0.009939231012
10216, 0.04985558606, 0.05067941419, 0.009939231012
10217, 0.04982022618, 0.05067092504, 0.009939231012
10218, 0.04978535905, 0.05066059692, 0.009939231012
10219, 0.04975108023, 0.05064845816, 0.009939231012
10220, 0.04971748369, 0.05063454202, 0.009939231012
10221, 0.04968466151, 0.05061888664, 0.009939231012
10222, 0.04965270364, 0.05060153493, 0.009939231012
10223, 0.0496216977, 0.05058253446, 0.009939231012
10224, 0.04959172865, 0.05056193731, 0.009939231012
10225, 0.04956287864, 0.05053979992, 0.009939231012
10226, 0.04953522676, 0.05051618298, 0.009939231012
10227, 0.04950884878, 0.05049115122, 0.009939231012
10228, 0.04948381702, 0.05046477324, 0.009939231012
10229, 0.04946020008, 0.05043712136, 0.009939231012
10230, 0.04943806269, 0.05040827135, 0.009939231012
10231, 0.04941746554, 0.0503783023, 0.009939231012
10232, 0.04939846507, 0.05034729636, 0.009939231012
10233, 0.04938111336, 0.05031533849, 0.009939231012
10234, 0.04936545798, 0.05028251631, 0.009939231012
10235, 0.04935154184, 0.05024891977, 0.009939231012
10236, 0.04933940308, 0.05021464095, 0.009939231012
10237, 0.04932907496, 0.05017977382, 0.009939231012
10238, 0.04932058581, 0.05014441394, 0.009939231012
10239, 0.04931395888, 0.05010865824, 0.009939231012
10240, 0.04930921234, 0.05007260471, 0.009939231012
10241, 0.0493063592, 0.05003635217, 0.009939231012
10242, 0.04930540729, 0.05, 0.009939231012
10243, 0.0493063592, 0.04996364783, 0.009939231012
10244, 0.04930921234, 0.04992739529, 0.009939231012
10245, 0.04931395888, 0.04989134176, 0.009939231012
10246, 0.04932058581, 0.04985558606, 0.009939231012
10247, 0.04932907496, 0.04982022618, 0.009939231012
10248, 0.04933940308, 0.04978535905, 0.009939231012
10249, 0.04935154184, 0.04975108023, 0.009939231012
10250, 0.04936545798, 0.04971748369, 0.009939231012
10251, 0.04938111336, 0.04968466151, 0.009939231012
10252, 0.04939846507, 0.04965270364, 0.009939231012
10253, 0.04941746554, 0.0496216977, 0.009939231012
10254, 0.04943806269, 0.04959172865, 0.009939231012
10255, 0.04946020008, 0.04956287864, 0.009939231012
10256, 0.04948381702, 0.04953522676, 0.009939231012
10257, 0.04950884878, 0.04950884878, 0.009939231012
10258, 0.04953522676, 0.04948381702, 0.009939231012
10259, 0.04956287864, 0.04946020008, 0.009939231012
10260, 0.04959172865, 0.04943806269, 0.009939231012
10261, 0.0496216977, 0.04941746554, 0.009939231012
10262, 0.04965270364, 0.04939846507, 0.009939231012
10263, 0.04968466151, 0.04938111336, 0.009939231012
10264, 0.04971748369, 0.04936545798, 0.009939231012
10265, 0.04975108023, 0.04935154184, 0.009939231012
10266, 0.04978535905, 0.04933940308, 0.009939231012
10267, 0.04982022618, 0.04932907496, 0.009939231012
10268, 0.04985558606, 0.04932058581, 0.009939231012
10269, 0.04989134176, 0.04931395888, 0.009939231012
10270, 0.04992739529, 0.04930921234, 0.009939231012
10271, 0.04996364783, 0.0493063592, 0.009939231012
10272, 0.05, 0.04930540729, 0.009939231012
10273, 0.05003635217, 0.0493063592, 0.009939231012
10274, 0.05007260471, 0.04930921234, 0.009939231012
10275, 0.05010865824, 0.04931395888, 0.009939231012
10276, 0.05014441394, 0.04932058581, 0.009939231012
10277, 0.05017977382, 0.04932907496, 0.009939231012
10278, 0.05021464095, 0.04933940308, 0.009939231012
10279, 0.05024891977, 0.04935154184, 0.009939231012
10280, 0.05028251631, 0.04936545798, 0.009939231012
10281, 0.05031533849, 0.04938111336, 0.009939231012
10282, 0.05034729636, 0.04939846507, 0.009939231012
10283, 0.0503783023, 0.04941746554, 0.009939231012
10284, 0.05040827135, 0.04943806269, 0.009939231012
10285, 0.05043712136, 0.04946020008, 0.009939231012
10286, 0.05046477324, 0.04948381702, 0.009939231012
10287, 0.05049115122, 0.04950884878, 0.009939231012
10288, 0.05051618298, 0.04953522676, 0.009939231012
10289, 0.05053979992, 0.04956287864, 0.009939231012
10290, 0.05056193731, 0.04959172865, 0.009939231012
10291, 0.05058253446, 0.0496216977, 0.009939231012
10292, 0.05060153493, 0.04965270364, 0.009939231012
10293, 0.05061888664, 0.04968466151, 0.009939231012
10294, 0.05063454202, 0.04971748369, 0.009939231012
10295, 0.05064845816, 0.04975108023, 0.009939231012
10296, 0.05066059692, 0.04978535905, 0.009939231012
10297, 0.05067092504, 0.04982022618, 0.009939231012
10298, 0.05067941419, 0.04985558606, 0.009939231012
10299, 0.05068604112, 0.04989134176, 0.009939231012
10300, 0.05069078766, 0.04992739529, 0.009939231012
10301, 0.0506936408, 0.04996364783, 0.009939231012
10302, 0.0505566924, 0.05, 0.009961072275
10303, 0.05055592948, 0.05002913503, 0.009961072275
10304, 0.05055364278, 0.0500581902, 0.009961072275
10305, 0.0505498386, 0.05008708588, 0.009961072275
10306, 0.05054452734, 0.05011574286, 0.009961072275
10307, 0.05053772357, 0.0501440826, 0.009961072275
10308, 0.05052944594, 0.05017202741, 0.009961072275
10309, 0.05051971713, 0.05019950072, 0.009961072275
10310, 0.05050856382, 0.0502264272, 0.009961072275
10311, 0.05049601656, 0.05025273306, 0.009961072275
10312, 0.05048210976, 0.0502783462, 0.009961072275
10313, 0.05046688153, 0.05030319641, 0.009961072275
10314, 0.05045037362, 0.05032721559, 0.009961072275
10315, 0.05043263125, 0.05035033788, 0.009961072275
10316, 0.05041370308, 0.05037249993, 0.009961072275
10317, 0.05039364097, 0.05039364097, 0.009961072275
10318, 0.05037249993, 0.05041370308, 0.009961072275
10319, 0.05035033788, 0.05043263125, 0.009961072275
10320, 0.05032721559, 0.05045037362, 0.009961072275
10321, 0.05030319641, 0.05046688153, 0.009961072275
10322, 0.0502783462, 0.05048210976, 0.009961072275
10323, 0.05025273306, 0.05049601656, 0.009961072275
10324, 0.0502264272, 0.05050856382, 0.009961072275
10325, 0.05019950072, 0.05051971713, 0.009961072275
10326, 0.05017202741, 0.05052944594, 0.009961072275
10327, 0.0501440826, 0.05053772357, 0.009961072275
10328, 0.05011574286, 0.05054452734, 0.009961072275
10329, 0.05008708588, 0.0505498386, 0.009961072275
10330, 0.0500581902, 0.05055364278, 0.009961072275
10331, 0.05002913503, 0.05055592948, 0.009961072275
10332, 0.05, 0.0505566924, 0.009961072275
10333, 0.04997086497, 0.05055592948, 0.009961072275
10334, 0.0499418098, 0.05055364278, 0.009961072275
10335, 0.04991291412, 0.0505498386, 0.009961072275
10336, 0.04988425714, 0.05054452734, 0.009961072275
10337, 0.0498559174, 0.05053772357, 0.009961072275
10338, 0.04982797259, 0.05052944594, 0.009961072275
10339, 0.04980049928, 0.05051971713, 0.009961072275
10340, 0.0497735728, 0.05050856382, 0.009961072275
10341, 0.04974726694, 0.05049601656, 0.009961072275
10342, 0.0497216538, 0.05048210976, 0.009961072275
10343, 0.04969680359, 0.05046688153, 0.009961072275
10344, 0.04967278441, 0.05045037362, 0.009961072275
10345, 0.04964966212, 0.05043263125, 0.009961072275
10346, 0.04962750007, 0.05041370308, 0.009961072275
10347, 0.04960635903, 0.05039364097, 0.009961072275
10348, 0.04958629692, 0.05037249993, 0.009961072275
10349, 0.04956736875, 0.05035033788, 0.009961072275
10350, 0.04954962638, 0.05032721559, 0.009961072275
10351, 0.04953311847, 0.05030319641, 0.009961072275
10352, 0.04951789024, 0.0502783462, 0.009961072275
10353, 0.04950398344, 0.05025273306, 0.009961072275
10354, 0.04949143618, 0.0502264272, 0.009961072275
10355, 0.04948028287, 0.05019950072, 0.009961072275
10356, 0.04947055406, 0.05017202741, 0.009961072275
10357, 0.04946227643, 0.0501440826, 0.009961072275
10358, 0.04945547266, 0.05011574286, 0.009961072275
10359, 0.0494501614, 0.05008708588, 0.009961072275
10360, 0.04944635722, 0.0500581902, 0.009961072275
10361, 0.04944407052, 0.05002913503, 0.009961072275
10362, 0.0494433076, 0.05, 0.009961072275
10363, 0.04944407052, 0.04997086497, 0.009961072275
10364, 0.04944635722, 0.0499418098, 0.009961072275
10365, 0.0494501614, 0.04991291412, 0.009961072275
10366, 0.04945547266, 0.04988425714, 0.009961072275
10367, 0.04946227643, 0.0498559174, 0.009961072275
10368, 0.04947055406, 0.04982797259, 0.009961072275
10369, 0.04948028287, 0.04980049928, 0.009961072275
10370, 0.04949143618, 0.0497735728, 0.009961072275
10371, 0.04950398344, 0.04974726694, 0.009961072275
10372, 0.04951789024, 0.0497216538, 0.009961072275
10373, 0.04953311847, 0.04969680359, 0.009961072275
10374, 0.04954962638, 0.04967278441, 0.009961072275
10375, 0.04956736875, 0.04964966212, 0.009961072275
10376, 0.04958629692, 0.04962750007, 0.009961072275
10377, 0.04960635903, 0.04960635903, 0.009961072275
10378, 0.04962750007, 0.04958629692, 0.009961072275
10379, 0.04964966212, 0.04956736875, 0.009961072275
10380, 0.04967278441, 0.04954962638, 0.009961072275
10381, 0.04969680359, 0.04953311847, 0.009961072275
10382, 0.0497216538, 0.04951789024, 0.009961072275
10383, 0.04974726694, 0.04950398344, 0.009961072275
10384, 0.0497735728, 0.04949143618, 0.009961072275
10385, 0.04980049928, 0.04948028287, 0.009961072275
10386, 0.04982797259, 0.04947055406, 0.009961072275
10387, 0.0498559174, 0.04946227643, 0.009961072275
10388, 0.04988425714, 0.04945547266, 0.009961072275
10389, 0.04991291412, 0.0494501614, 0.009961072275
10390, 0.0499418098, 0.04944635722, 0.009961072275
10391, 0.04997086497, 0.04944407052, 0.009961072275
10392, 0.05, 0.0494433076, 0.009961072275
10393, 0.05002913503, 0.04944407052, 0.009961072275
10394, 0.0500581902, 0.04944635722, 0.009961072275
10395, 0.05008708588, 0.0494501614, 0.009961072275
10396, 0.05011574286, 0.04945547266, 0.009961072275
10397, 0.0501440826, 0.04946227643, 0.009961072275
10398, 0.05017202741, 0.04947055406, 0.009961072275
10399, 0.05019950072, 0.04948028287, 0.009961072275
10400, 0.0502264272, 0.04949143618, 0.009961072275
10401, 0.05025273306, 0.04950398344, 0.009961072275
10402, 0.0502783462, 0.04951789024, 0.009961072275
10403, 0.05030319641, 0.04953311847, 0.009961072275
10404, 0.05032721559, 0.04954962638, 0.009961072275
10405, 0.05035033788, 0.04956736875, 0.009961072275
10406, 0.05037249993, 0.04958629692, 0.009961072275
10407, 0.05039364097, 0.04960635903, 0.009961072275
10408, 0.05041370308, 0.04962750007, 0.009961072275
10409, 0.05043263125, 0.04964966212, 0.009961072275
10410, 0.05045037362, 0.04967278441, 0.009961072275
10411, 0.05046688153, 0.04969680359, 0.009961072275
10412, 0.05048210976, 0.0497216538, 0.009961072275
10413, 0.05049601656, 0.04974726694, 0.009961072275
10414, 0.05050856382, 0.0497735728, 0.009961072275
10415, 0.05051971713, 0.04980049928, 0.009961072275
10416, 0.05052944594, 0.04982797259, 0.009961072275
10417, 0.05053772357, 0.0498559174, 0.009961072275
10418, 0.05054452734, 0.04988425714, 0.009961072275
10419, 0.0505498386, 0.04991291412, 0.009961072275
10420, 0.05055364278, 0.0499418098, 0.009961072275
10421, 0.05055592948, 0.04997086497, 0.009961072275
10422, 0.05041811385, 0.05, 0.009978087581
10423, 0.05041754084, 0.05002188239, 0.009978087581
10424, 0.05041582338, 0.0500437048, 0.009978087581
10425, 0.05041296618, 0.05006540742, 0.009978087581
10426, 0.05040897706, 0.05008693076, 0.009978087581
10427, 0.05040386697, 0.05010821583, 0.009978087581
10428, 0.0503976499, 0.05012920429, 0.009978087581
10429, 0.05039034291, 0.0501498386, 0.009978087581
10430, 0.05038196601, 0.05017006223, 0.009978087581
10431, 0.05037254217, 0.05018981972, 0.009978087581
10432, 0.05036209722, 0.05020905693, 0.009978087581
10433, 0.05035065978, 0.05022772113, 0.009978087581
10434, 0.05033826121, 0.05024576116, 0.009978087581
10435, 0.05032493549, 0.05026312757, 0.009978087581
10436, 0.05031071915, 0.05027977278, 0.009978087581
10437, 0.05029565114, 0.05029565114, 0.009978087581
10438, 0.05027977278, 0.05031071915, 0.009978087581
10439, 0.05026312757, 0.05032493549, 0.009978087581
10440, 0.05024576116, 0.05033826121, 0.009978087581
10441, 0.05022772113, 0.05035065978, 0.009978087581
10442, 0.05020905693, 0.05036209722, 0.009978087581
10443, 0.05018981972, 0.05037254217, 0.009978087581
10444, 0.05017006223, 0.05038196601, 0.009978087581
10445, 0.0501498386, 0.05039034291, 0.009978087581
10446, 0.05012920429, 0.0503976499, 0.009978087581
10447, 0.05010821583, 0.05040386697, 0.009978087581
10448, 0.05008693076, 0.05040897706, 0.009978087581
10449, 0.05006540742, 0.05041296618, 0.009978087581
10450, 0.0500437048, 0.05041582338, 0.009978087581
10451, 0.05002188239, 0.05041754084, 0.009978087581
10452, 0.05, 0.05041811385, 0.009978087581
10453, 0.04997811761, 0.05041754084, 0.009978087581
10454, 0.0499562952, 0.05041582338, 0.009978087581
10455, 0.04993459258, 0.05041296618, 0.009978087581
10456, 0.04991306924, 0.05040897706, 0.009978087581
10457, 0.04989178417, 0.05040386697, 0.009978087581
10458, 0.04987079571, 0.0503976499, 0.009978087581
10459, 0.0498501614, 0.05039034291, 0.009978087581
10460, 0.04982993777, 0.05038196601, 0.009978087581
10461, 0.04981018028, 0.05037254217, 0.009978087581
10462, 0.04979094307, 0.05036209722, 0.009978087581
10463, 0.04977227887, 0.05035065978, 0.009978087581
10464, 0.04975423884, 0.05033826121, 0.009978087581
10465, 0.04973687243, 0.05032493549, 0.009978087581
10466, 0.04972022722, 0.05031071915, 0.009978087581
10467, 0.04970434886, 0.05029565114, 0.009978087581
10468, 0.04968928085, 0.05027977278, 0.009978087581
10469, 0.04967506451, 0.05026312757, 0.009978087581
10470, 0.04966173879, 0.05024576116, 0.009978087581
10471, 0.04964934022, 0.05022772113, 0.009978087581
10472, 0.04963790278, 0.05020905693, 0.009978087581
10473, 0.04962745783, 0.05018981972, 0.009978087581
10474, 0.04961803399, 0.05017006223, 0.009978087581
10475, 0.04960965709, 0.0501498386, 0.009978087581
10476, 0.0496023501, 0.05012920429, 0.009978087581
10477, 0.04959613303, 0.05010821583, 0.009978087581
10478, 0.04959102294, 0.05008693076, 0.009978087581
10479, 0.04958703382, 0.05006540742, 0.009978087581
10480, 0.04958417662, 0.0500437048, 0.009978087581
10481, 0.04958245916, 0.05002188239, 0.009978087581
10482, 0.04958188615, 0.05, 0.009978087581
10483, 0.04958245916, 0.04997811761, 0.009978087581
10484, 0.04958417662, 0.0499562952, 0.009978087581
10485, 0.04958703382, 0.04993459258, 0.009978087581
10486, 0.04959102294, 0.04991306924, 0.009978087581
10487, 0.04959613303, 0.04989178417, 0.009978087581
10488, 0.0496023501, 0.04987079571, 0.009978087581
10489, 0.04960965709, 0.0498501614, 0.009978087581
10490, 0.04961803399, 0.04982993777, 0.009978087581
10491, 0.04962745783, 0.04981018028, 0.009978087581
10492, 0.04963790278, 0.04979094307, 0.009978087581
10493, 0.04964934022, 0.04977227887, 0.009978087581
10494, 0.04966173879, 0.04975423884, 0.009978087581
10495, 0.04967506451, 0.04973687243, 0.009978087581
10496, 0.04968928085, 0.04972022722, 0.009978087581
10497, 0.04970434886, 0.04970434886, 0.009978087581
10498, 0.04972022722, 0.04968928085, 0.009978087581
10499, 0.04973687243, 0.04967506451, 0.009978087581
10500, 0.04975423884, 0.04966173879, 0.009978087581
10501, 0.04977227887, 0.04964934022, 0.009978087581
10502, 0.04979094307, 0.04963790278, 0.009978087581
10503, 0.04981018028, 0.04962745783, 0.009978087581
10504, 0.04982993777, 0.04961803399, 0.009978087581
10505, 0.0498501614, 0.04960965709, 0.009978087581
10506, 0.04987079571, 0.0496023501, 0.009978087581
10507, 0.04989178417, 0.04959613303, 0.009978087581
10508, 0.04991306924, 0.04959102294, 0.009978087581
10509, 0.04993459258, 0.04958703382, 0.009978087581
10510, 0.0499562952, 0.04958417662, 0.009978087581
10511, 0.04997811761, 0.04958245916, 0.009978087581
10512, 0.05, 0.04958188615, 0.009978087581
10513, 0.05002188239, 0.04958245916, 0.009978087581
10514, 0.0500437048, 0.04958417662, 0.009978087581
10515, 0.05006540742, 0.04958703382, 0.009978087581
10516, 0.05008693076, 0.04959102294, 0.009978087581
10517, 0.05010821583, 0.04959613303, 0.009978087581
10518, 0.05012920429, 0.0496023501, 0.009978087581
10519, 0.0501498386, 0.04960965709, 0.009978087581
10520, 0.05017006223, 0.04961803399, 0.009978087581
10521, 0.05018981972, 0.04962745783, 0.009978087581
10522, 0.05020905693, 0.04963790278, 0.009978087581
10523, 0.05022772113, 0.04964934022, 0.009978087581
10524, 0.05024576116, 0.04966173879, 0.009978087581
10525, 0.05026312757, 0.04967506451, 0.009978087581
10526, 0.05027977278, 0.04968928085, 0.009978087581
10527, 0.05029565114, 0.04970434886, 0.009978087581
10528, 0.05031071915, 0.04972022722, 0.009978087581
10529, 0.05032493549, 0.04973687243, 0.009978087581
10530, 0.05033826121, 0.04975423884, 0.009978087581
10531, 0.05035065978, 0.04977227887, 0.009978087581
10532, 0.05036209722, 0.04979094307, 0.009978087581
10533, 0.05037254217, 0.04981018028, 0.009978087581
10534, 0.05038196601, 0.04982993777, 0.009978087581
10535, 0.05039034291, 0.0498501614, 0.009978087581
10536, 0.0503976499, 0.04987079571, 0.009978087581
10537, 0.05040386697, 0.04989178417, 0.009978087581
10538, 0.05040897706, 0.04991306924, 0.009978087581
10539, 0.05041296618, 0.04993459258, 0.009978087581
10540, 0.05041582338, 0.0499562952, 0.009978087581
10541, 0.05041754084, 0.04997811761, 0.009978087581
10542, 0.05027902589, 0.05, 0.009990256201
10543, 0.0502786435, 0.05001460309, 0.009990256201
10544, 0.05027749736, 0.05002916615, 0.009990256201
10545, 0.05027559062, 0.05004364927, 0.009990256201
10546, 0.05027292851, 0.05005801275, 0.009990256201
10547, 0.05026951832, 0.05007221722, 0.009990256201
10548, 0.0502653694, 0.05008622374, 0.009990256201
10549, 0.05026049311, 0.05009999394, 0.009990256201
10550, 0.05025490284, 0.05011349006, 0.009990256201
10551, 0.05024861389, 0.05012667511, 0.009990256201
10552, 0.05024164351, 0.05013951295, 0.009990256201
10553, 0.05023401081, 0.05015196839, 0.009990256201
10554, 0.05022573669, 0.05016400731, 0.009990256201
10555, 0.05021684385, 0.05017559669, 0.009990256201
10556, 0.05020735665, 0.05018670477, 0.009990256201
10557, 0.0501973011, 0.0501973011, 0.009990256201
10558, 0.05018670477, 0.05020735665, 0.009990256201
10559, 0.05017559669, 0.05021684385, 0.009990256201
10560, 0.05016400731, 0.05022573669, 0.009990256201
10561, 0.05015196839, 0.05023401081, 0.009990256201
10562, 0.05013951295, 0.05024164351, 0.009990256201
10563, 0.05012667511, 0.05024861389, 0.009990256201
10564, 0.05011349006, 0.05025490284, 0.009990256201
10565, 0.05009999394, 0.05026049311, 0.009990256201
10566, 0.05008622374, 0.0502653694, 0.009990256201
10567, 0.05007221722, 0.05026951832, 0.009990256201
10568, 0.05005801275, 0.05027292851, 0.009990256201
10569, 0.05004364927, 0.05027559062, 0.009990256201
10570, 0.05002916615, 0.05027749736, 0.009990256201
10571, 0.05001460309, 0.0502786435, 0.009990256201
10572, 0.05, 0.05027902589, 0.009990256201
10573, 0.04998539691, 0.0502786435, 0.009990256201
10574, 0.04997083385, 0.05027749736, 0.009990256201
10575, 0.04995635073, 0.05027559062, 0.009990256201
10576, 0.04994198725, 0.05027292851, 0.009990256201
10577, 0.04992778278, 0.05026951832, 0.009990256201
10578, 0.04991377626, 0.0502653694, 0.009990256201
10579, 0.04990000606, 0.05026049311, 0.009990256201
10580, 0.04988650994, 0.05025490284, 0.009990256201
10581, 0.04987332489, 0.05024861389, 0.009990256201
10582, 0.04986048705, 0.05024164351, 0.009990256201
10583, 0.04984803161, 0.05023401081, 0.009990256201
10584, 0.04983599269, 0.05022573669, 0.009990256201
10585, 0.04982440331, 0.05021684385, 0.009990256201
10586, 0.04981329523, 0.05020735665, 0.009990256201
10587, 0.0498026989, 0.0501973011, 0.009990256201
10588, 0.04979264335, 0.05018670477, 0.009990256201
10589, 0.04978315615, 0.05017559669, 0.009990256201
10590, 0.04977426331, 0.05016400731, 0.009990256201
10591, 0.04976598919, 0.05015196839, 0.009990256201
10592, 0.04975835649, 0.05013951295, 0.009990256201
10593, 0.04975138611, 0.05012667511, 0.009990256201
10594, 0.04974509716, 0.05011349006, 0.009990256201
10595, 0.04973950689, 0.05009999394, 0.009990256201
10596, 0.0497346306, 0.05008622374, 0.009990256201
10597, 0.04973048168, 0.05007221722, 0.009990256201
10598, 0.04972707149, 0.05005801275, 0.009990256201
10599, 0.04972440938, 0.05004364927, 0.009990256201
10600, 0.04972250264, 0.05002916615, 0.009990256201
10601, 0.0497213565, 0.05001460309, 0.009990256201
10602, 0.04972097411, 0.05, 0.009990256201
10603, 0.0497213565, 0.04998539691, 0.009990256201
10604, 0.04972250264, 0.04997083385, 0.009990256201
10605, 0.04972440938, 0.04995635073, 0.009990256201
10606, 0.04972707149, 0.04994198725, 0.009990256201
10607, 0.04973048168, 0.04992778278, 0.009990256201
10608, 0.0497346306, 0.04991377626, 0.009990256201
10609, 0.04973950689, 0.04990000606, 0.009990256201
10610, 0.04974509716, 0.04988650994, 0.009990256201
10611, 0.04975138611, 0.04987332489, 0.009990256201
10612, 0.04975835649, 0.04986048705, 0.009990256201
10613, 0.04976598919, 0.04984803161, 0.009990256201
10614, 0.04977426331, 0.04983599269, 0.009990256201
10615, 0.04978315615, 0.04982440331, 0.009990256201
10616, 0.04979264335, 0.04981329523, 0.009990256201
10617, 0.0498026989, 0.0498026989, 0.009990256201
10618, 0.04981329523, 0.04979264335, 0.009990256201
10619, 0.04982440331, 0.04978315615, 0.009990256201
10620, 0.04983599269, 0.04977426331, 0.009990256201
10621, 0.04984803161, 0.04976598919, 0.009990256201
10622, 0.04986048705, 0.04975835649, 0.009990256201
10623, 0.04987332489, 0.04975138611, 0.009990256201
10624, 0.04988650994, 0.04974509716, 0.009990256201
10625, 0.04990000606, 0.04973950689, 0.009990256201
10626, 0.04991377626, 0.0497346306, 0.009990256201
10627, 0.04992778278, 0.04973048168, 0.009990256201
10628, 0.04994198725, 0.04972707149, 0.009990256201
10629, 0.04995635073, 0.04972440938, 0.009990256201
10630, 0.04997083385, 0.04972250264, 0.009990256201
10631, 0.04998539691, 0.0497213565, 0.009990256201
10632, 0.05, 0.04972097411, 0.009990256201
10633, 0.05001460309, 0.0497213565, 0.009990256201
10634, 0.05002916615, 0.04972250264, 0.009990256201
10635, 0.05004364927, 0.04972440938, 0.009990256201
10636, 0.05005801275, 0.04972707149, 0.009990256201
10637, 0.05007221722, 0.04973048168, 0.009990256201
10638, 0.05008622374, 0.0497346306, 0.009990256201
10639, 0.05009999394, 0.04973950689, 0.009990256201
10640, 0.05011349006, 0.04974509716, 0.009990256201
10641, 0.05012667511, 0.04975138611, 0.009990256201
10642, 0.05013951295, 0.04975835649, 0.009990256201
10643, 0.05015196839, 0.04976598919, 0.009990256201
10644, 0.05016400731, 0.04977426331, 0.009990256201
10645, 0.05017559669, 0.04978315615, 0.009990256201
10646, 0.05018670477, 0.04979264335, 0.009990256201
10647, 0.0501973011, 0.0498026989, 0.009990256201
10648, 0.05020735665, 0.04981329523, 0.009990256201
10649, 0.05021684385, 0.04982440331, 0.009990256201
10650, 0.05022573669, 0.04983599269, 0.009990256201
10651, 0.05023401081, 0.04984803161, 0.009990256201
10652, 0.05024164351, 0.04986048705, 0.009990256201
10653, 0.05024861389, 0.04987332489, 0.009990256201
10654, 0.05025490284, 0.04988650994, 0.009990256201
10655, 0.05026049311, 0.04990000606, 0.009990256201
10656, 0.0502653694, 0.04991377626, 0.009990256201
10657, 0.05026951832, 0.04992778278, 0.009990256201
10658, 0.05027292851, 0.04994198725, 0.009990256201
10659, 0.05027559062, 0.04995635073, 0.009990256201
10660, 0.05027749736, 0.04997083385, 0.009990256201
10661, 0.0502786435, 0.04998539691, 0.009990256201
10662, 0.05013959799, 0.05, 0.009997563308
10663, 0.05013940667, 0.05000730599, 0.009997563308
10664, 0.05013883325, 0.05001459196, 0.009997563308
10665, 0.0501378793, 0.05002183794, 0.009997563308
10666, 0.05013654744, 0.05002902405, 0.009997563308
10667, 0.0501348413, 0.05003613062, 0.009997563308
10668, 0.05013276558, 0.05004313815, 0.009997563308
10669, 0.05013032595, 0.05005002744, 0.009997563308
10670, 0.05012752911, 0.05005677962, 0.009997563308
10671, 0.05012438272, 0.05006337616, 0.009997563308
10672, 0.0501208954, 0.05006979899, 0.009997563308
10673, 0.05011707672, 0.05007603051, 0.009997563308
10674, 0.05011293714, 0.05008205364, 0.009997563308
10675, 0.05010848801, 0.05008785186, 0.009997563308
10676, 0.05010374152, 0.05009340929, 0.009997563308
10677, 0.05009871068, 0.05009871068, 0.009997563308
10678, 0.05009340929, 0.05010374152, 0.009997563308
10679, 0.05008785186, 0.05010848801, 0.009997563308
10680, 0.05008205364, 0.05011293714, 0.009997563308
10681, 0.05007603051, 0.05011707672, 0.009997563308
10682, 0.05006979899, 0.0501208954, 0.009997563308
10683, 0.05006337616, 0.05012438272, 0.009997563308
10684, 0.05005677962, 0.05012752911, 0.009997563308
10685, 0.05005002744, 0.05013032595, 0.009997563308
10686, 0.05004313815, 0.05013276558, 0.009997563308
10687, 0.05003613062, 0.0501348413, 0.009997563308
10688, 0.05002902405, 0.05013654744, 0.009997563308
10689, 0.05002183794, 0.0501378793, 0.009997563308
10690, 0.05001459196, 0.05013883325, 0.009997563308
10691, 0.05000730599, 0.05013940667, 0.009997563308
10692, 0.05, 0.05013959799, 0.009997563308
10693, 0.04999269401, 0.05013940667, 0.009997563308
10694, 0.04998540804, 0.05013883325, 0.009997563308
10695, 0.04997816206, 0.0501378793, 0.009997563308
10696, 0.04997097595, 0.05013654744, 0.009997563308
10697, 0.04996386938, 0.0501348413, 0.009997563308
10698, 0.04995686185, 0.05013276558, 0.009997563308
10699, 0.04994997256, 0.05013032595, 0.009997563308
10700, 0.04994322038, 0.05012752911, 0.009997563308
10701, 0.04993662384, 0.05012438272, 0.009997563308
10702, 0.04993020101, 0.0501208954, 0.009997563308
10703, 0.04992396949, 0.05011707672, 0.009997563308
10704, 0.04991794636, 0.05011293714, 0.009997563308
10705, 0.04991214814, 0.05010848801, 0.009997563308
10706, 0.04990659071, 0.05010374152, 0.009997563308
10707, 0.04990128932, 0.05009871068, 0.009997563308
10708, 0.04989625848, 0.05009340929, 0.009997563308
10709, 0.04989151199, 0.05008785186, 0.009997563308
10710, 0.04988706286, 0.05008205364, 0.009997563308
10711, 0.04988292328, 0.05007603051, 0.009997563308
10712, 0.0498791046, 0.05006979899, 0.009997563308
10713, 0.04987561728, 0.05006337616, 0.009997563308
10714, 0.04987247089, 0.05005677962, 0.009997563308
10715, 0.04986967405, 0.05005002744, 0.009997563308
10716, 0.04986723442, 0.05004313815, 0.009997563308
10717, 0.0498651587, 0.05003613062, 0.009997563308
10718, 0.04986345256, 0.05002902405, 0.009997563308
10719, 0.0498621207, 0.05002183794, 0.009997563308
10720, 0.04986116675, 0.05001459196, 0.009997563308
10721, 0.04986059333, 0.05000730599, 0.009997563308
10722, 0.04986040201, 0.05, 0.009997563308
10723, 0.04986059333, 0.04999269401, 0.009997563308
10724, 0.04986116675, 0.04998540804, 0.009997563308
10725, 0.0498621207, 0.04997816206, 0.009997563308
10726, 0.04986345256, 0.04997097595, 0.009997563308
10727, 0.0498651587, 0.04996386938, 0.009997563308
10728, 0.04986723442, 0.04995686185, 0.009997563308
10729, 0.04986967405, 0.04994997256, 0.009997563308
10730, 0.04987247089, 0.04994322038, 0.009997563308
10731, 0.04987561728, 0.04993662384, 0.009997563308
10732, 0.0498791046, 0.04993020101, 0.009997563308
10733, 0.04988292328, 0.04992396949, 0.009997563308
10734, 0.04988706286, 0.04991794636, 0.009997563308
10735, 0.04989151199, 0.04991214814, 0.009997563308
10736, 0.04989625848, 0.04990659071, 0.009997563308
10737, 0.04990128932, 0.04990128932, 0.009997563308
10738, 0.04990659071, 0.04989625848, 0.009997563308
10739, 0.04991214814, 0.04989151199, 0.009997563308
10740, 0.04991794636, 0.04988706286, 0.009997563308
10741, 0.04992396949, 0.04988292328, 0.009997563308
10742, 0.04993020101, 0.0498791046, 0.009997563308
10743, 0.04993662384, 0.04987561728, 0.009997563308
10744, 0.04994322038, 0.04987247089, 0.009997563308
10745, 0.04994997256, 0.04986967405, 0.009997563308
10746, 0.04995686185, 0.04986723442, 0.009997563308
10747, 0.04996386938, 0.0498651587, 0.009997563308
10748, 0.04997097595, 0.04986345256, 0.009997563308
10749, 0.04997816206, 0.0498621207, 0.009997563308
10750, 0.04998540804, 0.04986116675, 0.009997563308
10751, 0.04999269401, 0.04986059333, 0.009997563308
10752, 0.05, 0.04986040201, 0.009997563308
10753, 0.05000730599, 0.04986059333, 0.009997563308
10754, 0.05001459196, 0.04986116675, 0.009997563308
10755, 0.05002183794, 0.0498621207, 0.009997563308
10756, 0.05002902405, 0.04986345256, 0.009997563308
10757, 0.05003613062, 0.0498651587, 0.009997563308
10758, 0.05004313815, 0.04986723442, 0.009997563308
10759, 0.05005002744, 0.04986967405, 0.009997563308
10760, 0.05005677962, 0.04987247089, 0.009997563308
10761, 0.05006337616, 0.04987561728, 0.009997563308
10762, 0.05006979899, 0.0498791046, 0.009997563308
10763, 0.05007603051, 0.04988292328, 0.009997563308
10764, 0.05008205364, 0.04988706286, 0.009997563308
10765, 0.05008785186, 0.04989151199, 0.009997563308
10766, 0.05009340929, 0.04989625848, 0.009997563308
10767, 0.05009871068, 0.04990128932, 0.009997563308
10768, 0.05010374152, 0.04990659071, 0.009997563308
10769, 0.05010848801, 0.04991214814, 0.009997563308
10770, 0.05011293714, 0.04991794636, 0.009997563308
10771, 0.05011707672, 0.04992396949, 0.009997563308
10772, 0.0501208954, 0.04993020101, 0.009997563308
10773, 0.05012438272, 0.04993662384, 0.009997563308
10774, 0.05012752911, 0.04994322038, 0.009997563308
10775, 0.05013032595, 0.04994997256, 0.009997563308
10776, 0.05013276558, 0.04995686185, 0.009997563308
10777, 0.0501348413, 0.04996386938, 0.009997563308
10778, 0.05013654744, 0.04997097595, 0.009997563308
10779, 0.0501378793, 0.04997816206, 0.009997563308
10780, 0.05013883325, 0.04998540804, 0.009997563308
10781, 0.05013940667, 0.04999269401, 0.009997563308
10782, 0.05, 0.05, 0.01
10783, 0.05, 0.05, 0.006
** solid elements, one per ply
*Element, type=C3D8
1, 1, 2, 7, 6, 26, 27, 32, 31
2, 2, 3, 8, 7, 27, 28, 33, 32
3, 3, 4, 9, 8, 28, 29, 34, 33
4, 4, 5, 10, 9, 29, 30, 35, 34
5, 6, 7, 12, 11, 31, 32, 37, 36
6, 7, 8, 13, 12, 32, 33, 38, 37
7, 8, 9, 14, 13, 33, 34, 39, 38
8, 9, 10, 15, 14, 34, 35, 40, 39
9, 11, 12, 17, 16, 36, 37, 42, 41
10, 12, 13, 18, 17, 37, 38, 43, 42
11, 13, 14, 19, 18, 38, 39, 44, 43
12, 14, 15, 20, 19, 39, 40, 45, 44
13, 16, 17, 22, 21, 41, 42, 47, 46
14, 17, 18, 23, 22, 42, 43, 48, 47
15, 18, 19, 24, 23, 43, 44, 49, 48
16, 19, 20, 25, 24, 44, 45, 50, 49
17, 51, 52, 57, 56, 76, 77, 82, 81
18, 52, 53, 58, 57, 77, 78, 83, 82
19, 53, 54, 59, 58, 78, 79, 84, 83
20, 54, 55, 60, 59, 79, 80, 85, 84
21, 56, 57, 62, 61, 81, 82, 87, 86
22, 57, 58, 63, 62, 82, 83, 88, 87
23, 58, 59, 64, 63, 83, 84, 89, 88
24, 59, 60, 65, 64, 84, 85, 90, 89
25, 61, 62, 67, 66, 86, 87, 92, 91
26, 62, 63, 68, 67, 87, 88, 93, 92
27, 63, 64, 69, 68, 88, 89, 94, 93
28, 64, 65, 70, 69, 89, 90, 95, 94
29, 66, 67, 72, 71, 91, 92, 97, 96
30, 67, 68, 73, 72, 92, 93, 98, 97
31, 68, 69, 74, 73, 93, 94, 99, 98
32, 69, 70, 75, 74, 94, 95, 100, 99
** zero-thickness cohesive elements at each ply boundary
*Element, type=COH3D8
33, 26, 27, 32, 31, 51, 52, 57, 56
34, 27, 28, 33, 32, 52, 53, 58, 57
35, 28, 29, 34, 33, 53, 54, 59, 58
36, 29, 30, 35, 34, 54, 55, 60, 59
37, 31, 32, 37, 36, 56, 57, 62, 61
38, 32, 33, 38, 37, 57, 58, 63, 62
39, 33, 34, 39, 38, 58, 59, 64, 63
40, 34, 35, 40, 39, 59, 60, 65, 64
41, 36, 37, 42, 41, 61, 62, 67, 66
42, 37, 38, 43, 42, 62, 63, 68, 67
43, 38, 39, 44, 43, 63, 64, 69, 68
44, 39, 40, 45, 44, 64, 65, 70, 69
45, 41, 42, 47, 46, 66, 67, 72, 71
46, 42, 43, 48, 47, 67, 68, 73, 72
47, 43, 44, 49, 48, 68, 69, 74, 73
48, 44, 45, 50, 49, 69, 70, 75, 74
** rigid facets of the ball
*Element, type=R3D4
169, 101, 102, 222, 221
170, 102, 103, 223, 222
171, 103, 104, 224, 223
172, 104, 105, 225, 224
173, 105, 106, 226, 225
174, 106, 107, 227, 226
175, 107, 108, 228, 227
176, 108, 109, 229, 228
177, 109, 110, 230, 229
178, 110, 111, 231, 230
179, 111, 112, 232, 231
180, 112, 113, 233, 232
181, 113, 114, 234, 233
182, 114, 115, 235, 234
183, 115, 116, 236, 235
184, 116, 117, 237, 236
185, 117, 118, 238, 237
186, 118, 119, 239, 238
187, 119, 120, 240, 239
188, 120, 121, 241, 240
189, 121, 122, 242, 241
190, 122, 123, 243, 242
191, 123, 124, 244, 243
192, 124, 125, 245, 244
193, 125, 126, 246, 245
194, 126, 127, 247, 246
195, 127, 128, 248, 247
196, 128, 129, 249, 248
197, 129, 130, 250, 249
198, 130, 131, 251, 250
199, 131, 132, 252, 251
200, 132, 133, 253, 252
201, 133, 134, 254, 253
202, 134, 135, 255, 254
203, 135, 136, 256, 255
204, 136, 137, 257, 256
205, 137, 138, 258, 257
206, 138, 139, 259, 258
207, 139, 140, 260, 259
208, 140, 141, 261, 260
209, 141, 142, 262, 261
210, 142, 143, 263, 262
211, 143, 144, 264, 263
212, 144, 145, 265, 264
213, 145, 146, 266, 265
214, 146, 147, 267, 266
215, 147, 148, 268, 267
216, 148, 149, 269, 268
217, 149, 150, 270, 269
218, 150, 151, 271, 270
219, 151, 152, 272, 271
220, 152, 153, 273, 272
221, 153, 154, 274, 273
222, 154, 155, 275, 274
223, 155, 156, 276, 275
224, 156, 157, 277, 276
225, 157, 158, 278, 277
226, 158, 159, 279, 278
227, 159, 160, 280, 279
228, 160, 161, 281, 280
229, 161, 162, 282, 281
230, 162, 163, 283, 282
231, 163, 164, 284, 283
232, 164, 165, 285, 284
233, 165, 166, 286, 285
234, 166, 167, 287, 286
235, 167, 168, 288, 287
236, 168, 169, 289, 288
237, 169, 170, 290, 289
238, 170, 171, 291, 290
239, 171, 172, 292, 291
240, 172, 173, 293, 292
241, 173, 174, 294, 293
242, 174, 175, 295, 294
243, 175, 176, 296, 295
244, 176, 177, 297, 296
245, 177, 178, 298, 297
246, 178, 179, 299, 298
247, 179, 180, 300, 299
248, 180, 181, 301, 300
249, 181, 182, 302, 301
250, 182, 183, 303, 302
251, 183, 184, 304, 303
252, 184, 185, 305, 304
253, 185, 186, 306, 305
254, 186, 187, 307, 306
255, 187, 188, 308, 307
256, 188, 189, 309, 308
257, 189, 190, 310, 309
258, 190, 191, 311, 310
259, 191, 192, 312, 311
260, 192, 193, 313, 312
261, 193, 194, 314, 313
262, 194, 195, 315, 314
263, 195, 196, 316, 315
264, 196, 197, 317, 316
265, 197, 198, 318, 317
266, 198, 199, 319, 318
267, 199, 200, 320, 319
268, 200, 201, 321, 320
269, 201, 202, 322, 321
270, 202, 203, 323, 322
271, 203, 204, 324, 323
272, 204, 205, 325, 324
273, 205, 206, 326, 325
274, 206, 207, 327, 326
275, 207, 208, 328, 327
276, 208, 209, 329, 328
277, 209, 210, 330, 329
278, 210, 211, 331, 330
279, 211, 212, 332, 331
280, 212, 213, 333, 332
281, 213, 214, 334, 333
282, 214, 215, 335, 334
283, 215, 216, 336, 335
284, 216, 217, 337, 336
285, 217, 218, 338, 337
286, 218, 219, 339, 338
287, 219, 220, 340, 339
288, 220, 101, 221, 340
289, 221, 222, 342, 341
290, 222, 223, 343, 342
291, 223, 224, 344, 343
292, 224, 225, 345, 344
293, 225, 226, 346, 345
294, 226, 227, 347, 346
295, 227, 228, 348, 347
296, 228, 229, 349, 348
297, 229, 230, 350, 349
298, 230, 231, 351, 350
299, 231, 232, 352, 351
300, 232, 233, 353, 352
301, 233, 234, 354, 353
302, 234, 235, 355, 354
303, 235, 236, 356, 355
304, 236, 237, 357, 356
305, 237, 238, 358, 357
306, 238, 239, 359, 358
307, 239, 240, 360, 359
308, 240, 241, 361, 360
309, 241, 242, 362, 361
310, 242, 243, 363, 362
311, 243, 244, 364, 363
312, 244, 245, 365, 364
313, 245, 246, 366, 365
314, 246, 247, 367, 366
315, 247, 248, 368, 367
316, 248, 249, 369, 368
317, 249, 250, 370, 369
318, 250, 251, 371, 370
319, 251, 252, 372, 371
320, 252, 253, 373, 372
321, 253, 254, 374, 373
322, 254, 255, 375, 374
323, 255, 256, 376, 375
324, 256, 257, 377, 376
325, 257, 258, 378, 377
326, 258, 259, 379, 378
327, 259, 260, 380, 379
328, 260, 261, 381, 380
329, 261, 262, 382, 381
330, 262, 263, 383, 382
331, 263, 264, 384, 383
332, 264, 265, 385, 384
333, 265, 266, 386, 385
334, 266, 267, 387, 386
335, 267, 268, 388, 387
336, 268, 269, 389, 388
337, 269, 270, 390, 389
338, 270, 271, 391, 390
339, 271, 272, 392, 391
340, 272, 273, 393, 392
341, 273, 274, 394, 393
342, 274, 275, 395, 394
343, 275, 276, 396, 395
344, 276, 277, 397, 396
345, 277, 278, 398, 397
346, 278, 279, 399, 398
347, 279, 280, 400, 399
348, 280, 281, 401, 400
349, 281, 282, 402, 401
350, 282, 283, 403, 402
351, 283, 284, 404, 403
352, 284, 285, 405, 404
353, 285, 286, 406, 405
354, 286, 287, 407, 406
355, 287, 288, 408, 407
356, 288, 289, 409, 408
357, 289, 290, 410, 409
358, 290, 291, 411, 410
359, 291, 292, 412, 411
360, 292, 293, 413, 412
361, 293, 294, 414, 413
362, 294, 295, 415, 414
363, 295, 296, 416, 415
364, 296, 297, 417, 416
365, 297, 298, 418, 417
366, 298, 299, 419, 418
367, 299, 300, 420, 419
368, 300, 301, 421, 420
369, 301, 302, 422, 421
370, 302, 303, 423, 422
371, 303, 304, 424, 423
372, 304, 305, 425, 424
373, 305, 306, 426, 425
374, 306, 307, 427, 426
375, 307, 308, 428, 427
376, 308, 309, 429, 428
377, 309, 310, 430, 429
378, 310, 311, 431, 430
379, 311, 312, 432, 431
380, 312, 313, 433, 432
381, 313, 314, 434, 433
382, 314, 315, 435, 434
383, 315, 316, 436, 435
384, 316, 317, 437, 436
385, 317, 318, 438, 437
386, 318, 319, 439, 438
387, 319, 320, 440, 439
388, 320, 321, 441, 440
389, 321, 322, 442, 441
390, 322, 323, 443, 442
391, 323, 324, 444, 443
392, 324, 325, 445, 444
393, 325, 326, 446, 445
394, 326, 327, 447, 446
395, 327, 328, 448, 447
396, 328, 329, 449, 448
397, 329, 330, 450, 449
398, 330, 331, 451, 450
399, 331, 332, 452, 451
400, 332, 333, 453, 452
401, 333, 334, 454, 453
402, 334, 335, 455, 454
403, 335, 336, 456, 455
404, 336, 337, 457, 456
405, 337, 338, 458, 457
406, 338, 339, 459, 458
407, 339, 340, 460, 459
408, 340, 221, 341, 460
409, 341, 342, 462, 461
410, 342, 343, 463, 462
411, 343, 344, 464, 463
412, 344, 345, 465, 464
413, 345, 346, 466, 465
414, 346, 347, 467, 466
415, 347, 348, 468, 467
416, 348, 349, 469, 468
417, 349, 350, 470, 469
418, 350, 351, 471, 470
419, 351, 352, 472, 471
420, 352, 353, 473, 472
421, 353, 354, 474, 473
422, 354, 355, 475, 474
423, 355, 356, 476, 475
424, 356, 357, 477, 476
425, 357, 358, 478, 477
426, 358, 359, 479, 478
427, 359, 360, 480, 479
428, 360, 361, 481, 480
429, 361, 362, 482, 481
430, 362, 363, 483, 482
431, 363, 364, 484, 483
432, 364, 365, 485, 484
433, 365, 366, 486, 485
434, 366, 367, 487, 486
435, 367, 368, 488, 487
436, 368, 369, 489, 488
437, 369, 370, 490, 489
438, 370, 371, 491, 490
439, 371, 372, 492, 491
440, 372, 373, 493, 492
441, 373, 374, 494, 493
442, 374, 375, 495, 494
443, 375, 376, 496, 495
444, 376, 377, 497, 496
445, 377, 378, 498, 497
446, 378, 379, 499, 498
447, 379, 380, 500, 499
448, 380, 381, 501, 500
449, 381, 382, 502, 501
450, 382, 383, 503, 502
451, 383, 384, 504, 503
452, 384, 385, 505, 504
453, 385, 386, 506, 505
454, 386, 387, 507, 506
455, 387, 388, 508, 507
456, 388, 389, 509, 508
457, 389, 390, 510, 509
458, 390, 391, 511, 510
459, 391, 392, 512, 511
460, 392, 393, 513, 512
461, 393, 394, 514, 513
462, 394, 395, 515, 514
463, 395, 396, 516, 515
464, 396, 397, 517, 516
465, 397, 398, 518, 517
466, 398, 399, 519, 518
467, 399, 400, 520, 519
468, 400, 401, 521, 520
469, 401, 402, 522, 521
470, 402, 403, 523, 522
471, 403, 404, 524, 523
472, 404, 405, 525, 524
473, 405, 406, 526, 525
474, 406, 407, 527, 526
475, 407, 408, 528, 527
476, 408, 409, 529, 528
477, 409, 410, 530, 529
478, 410, 411, 531, 530
479, 411, 412, 532, 531
480, 412, 413, 533, 532
481, 413, 414, 534, 533
482, 414, 415, 535, 534
483, 415, 416, 536, 535
484, 416, 417, 537, 536
485, 417, 418, 538, 537
486, 418, 419, 539, 538
487, 419, 420, 540, 539
488, 420, 421, 541, 540
489, 421, 422, 542, 541
490, 422, 423, 543, 542
491, 423, 424, 544, 543
492, 424, 425, 545, 544
493, 425, 426, 546, 545
494, 426, 427, 547, 546
495, 427, 428, 548, 547
496, 428, 429, 549, 548
497, 429, 430, 550, 549
498, 430, 431, 551, 550
499, 431, 432, 552, 551
500, 432, 433, 553, 552
501, 433, 434, 554, 553
502, 434, 435, 555, 554
503, 435, 436, 556, 555
504, 436, 437, 557, 556
505, 437, 438, 558, 557
506, 438, 439, 559, 558
507, 439, 440, 560, 559
508, 440, 441, 561, 560
509, 441, 442, 562, 561
510, 442, 443, 563, 562
511, 443, 444, 564, 563
512, 444, 445, 565, 564
513, 445, 446, 566, 565
514, 446, 447, 567, 566
515, 447, 448, 568, 567
516, 448, 449, 569, 568
517, 449, 450, 570, 569
518, 450, 451, 571, 570
519, 451, 452, 572, 571
520, 452, 453, 573, 572
521, 453, 454, 574, 573
522, 454, 455, 575, 574
523, 455, 456, 576, 575
524, 456, 457, 577, 576
525, 457, 458, 578, 577
526, 458, 459, 579, 578
527, 459, 460, 580, 579
528, 460, 341, 461, 580
529, 461, 462, 582, 581
530, 462, 463, 583, 582
531, 463, 464, 584, 583
532, 464, 465, 585, 584
533, 465, 466, 586, 585
534, 466, 467, 587, 586
535, 467, 468, 588, 587
536, 468, 469, 589, 588
537, 469, 470, 590, 589
538, 470, 471, 591, 590
539, 471, 472, 592, 591
540, 472, 473, 593, 592
541, 473, 474, 594, 593
542, 474, 475, 595, 594
543, 475, 476, 596, 595
544, 476, 477, 597, 596
545, 477, 478, 598, 597
546, 478, 479, 599, 598
547, 479, 480, 600, 599
548, 480, 481, 601, 600
549, 481, 482, 602, 601
550, 482, 483, 603, 602
551, 483, 484, 604, 603
552, 484, 485, 605, 604
553, 485, 486, 606, 605
554, 486, 487, 607, 606
555, 487, 488, 608, 607
556, 488, 489, 609, 608
557, 489, 490, 610, 609
558, 490, 491, 611, 610
559, 491, 492, 612, 611
560, 492, 493, 613, 612
561, 493, 494, 614, 613
562, 494, 495, 615, 614
563, 495, 496, 616, 615
564, 496, 497, 617, 616
565, 497, 498, 618, 617
566, 498, 499, 619, 618
567, 499, 500, 620, 619
568, 500, 501, 621, 620
569, 501, 502, 622, 621
570, 502, 503, 623, 622
571, 503, 504, 624, 623
572, 504, 505, 625, 624
573, 505, 506, 626, 625
574, 506, 507, 627, 626
575, 507, 508, 628, 627
576, 508, 509, 629, 628
577, 509, 510, 630, 629
578, 510, 511, 631, 630
579, 511, 512, 632, 631
580, 512, 513, 633, 632
581, 513, 514, 634, 633
582, 514, 515, 635, 634
583, 515, 516, 636, 635
584, 516, 517, 637, 636
585, 517, 518, 638, 637
586, 518, 519, 639, 638
587, 519, 520, 640, 639
588, 520, 521, 641, 640
589, 521, 522, 642, 641
590, 522, 523, 643, 642
591, 523, 524, 644, 643
592, 524, 525, 645, 644
593, 525, 526, 646, 645
594, 526, 527, 647, 646
595, 527, 528, 648, 647
596, 528, 529, 649, 648
597, 529, 530, 650, 649
598, 530, 531, 651, 650
599, 531, 532, 652, 651
600, 532, 533, 653, 652
601, 533, 534, 654, 653
602, 534, 535, 655, 654
603, 535, 536, 656, 655
604, 536, 537, 657, 656
605, 537, 538, 658, 657
606, 538, 539, 659, 658
607, 539, 540, 660, 659
608, 540, 541, 661, 660
609, 541, 542, 662, 661
610, 542, 543, 663, 662
611, 543, 544, 664, 663
612, 544, 545, 665, 664
613, 545, 546, 666, 665
614, 546, 547, 667, 666
615, 547, 548, 668, 667
616, 548, 549, 669, 668
617, 549, 550, 670, 669
618, 550, 551, 671, 670
619, 551, 552, 672, 671
620, 552, 553, 673, 672
621, 553, 554, 674, 673
622, 554, 555, 675, 674
623, 555, 556, 676, 675
624, 556, 557, 677, 676
625, 557, 558, 678, 677
626, 558, 559, 679, 678
627, 559, 560, 680, 679
628, 560, 561, 681, 680
629, 561, 562, 682, 681
630, 562, 563, 683, 682
631, 563, 564, 684, 683
632, 564, 565, 685, 684
633, 565, 566, 686, 685
634, 566, 567, 687, 686
635, 567, 568, 688, 687
636, 568, 569, 689, 688
637, 569, 570, 690, 689
638, 570, 571, 691, 690
639, 571, 572, 692, 691
640, 572, 573, 693, 692
641, 573, 574, 694, 693
642, 574, 575, 695, 694
643, 575, 576, 696, 695
644, 576, 577, 697, 696
645, 577, 578, 698, 697
646, 578, 579, 699, 698
647, 579, 580, 700, 699
648, 580, 461, 581, 700
649, 581, 582, 702, 701
650, 582, 583, 703, 702
651, 583, 584, 704, 703
652, 584, 585, 705, 704
653, 585, 586, 706, 705
654, 586, 587, 707, 706
655, 587, 588, 708, 707
656, 588, 589, 709, 708
657, 589, 590, 710, 709
658, 590, 591, 711, 710
659, 591, 592, 712, 711
660, 592, 593, 713, 712
661, 593, 594, 714, 713
662, 594, 595, 715, 714
663, 595, 596, 716, 715
664, 596, 597, 717, 716
665, 597, 598, 718, 717
666, 598, 599, 719, 718
667, 599, 600, 720, 719
668, 600, 601, 721, 720
669, 601, 602, 722, 721
670, 602, 603, 723, 722
671, 603, 604, 724, 723
672, 604, 605, 725, 724
673, 605, 606, 726, 725
674, 606, 607, 727, 726
675, 607, 608, 728, 727
676, 608, 609, 729, 728
677, 609, 610, 730, 729
678, 610, 611, 731, 730
679, 611, 612, 732, 731
680, 612, 613, 733, 732
681, 613, 614, 734, 733
682, 614, 615, 735, 734
683, 615, 616, 736, 735
684, 616, 617, 737, 736
685, 617, 618, 738, 737
686, 618, 619, 739, 738
687, 619, 620, 740, 739
688, 620, 621, 741, 740
689, 621, 622, 742, 741
690, 622, 623, 743, 742
691, 623, 624, 744, 743
692, 624, 625, 745, 744
693, 625, 626, 746, 745
694, 626, 627, 747, 746
695, 627, 628, 748, 747
696, 628, 629, 749, 748
697, 629, 630, 750, 749
698, 630, 631, 751, 750
699, 631, 632, 752, 751
700, 632, 633, 753, 752
701, 633, 634, 754, 753
702, 634, 635, 755, 754
703, 635, 636, 756, 755
704, 636, 637, 757, 756
705, 637, 638, 758, 757
706, 638, 639, 759, 758
707, 639, 640, 760, 759
708, 640, 641, 761, 760
709, 641, 642, 762, 761
710, 642, 643, 763, 762
711, 643, 644, 764, 763
712, 644, 645, 765, 764
713, 645, 646, 766, 765
714, 646, 647, 767, 766
715, 647, 648, 768, 767
716, 648, 649, 769, 768
717, 649, 650, 770, 769
718, 650, 651, 771, 770
719, 651, 652, 772, 771
720, 652, 653, 773, 772
721, 653, 654, 774, 773
722, 654, 655, 775, 774
723, 655, 656, 776, 775
724, 656, 657, 777, 776
725, 657, 658, 778, 777
726, 658, 659, 779, 778
727, 659, 660, 780, 779
728, 660, 661, 781, 780
729, 661, 662, 782, 781
730, 662, 663, 783, 782
731, 663, 664, 784, 783
732, 664, 665, 785, 784
733, 665, 666, 786, 785
734, 666, 667, 787, 786
735, 667, 668, 788, 787
736, 668, 669, 789, 788
737, 669, 670, 790, 789
738, 670, 671, 791, 790
739, 671, 672, 792, 791
740, 672, 673, 793, 792
741, 673, 674, 794, 793
742, 674, 675, 795, 794
743, 675, 676, 796, 795
744, 676, 677, 797, 796
745, 677, 678, 798, 797
746, 678, 679, 799, 798
747, 679, 680, 800, 799
748, 680, 681, 801, 800
749, 681, 682, 802, 801
750, 682, 683, 803, 802
751, 683, 684, 804, 803
752, 684, 685, 805, 804
753, 685, 686, 806, 805
754, 686, 687, 807, 806
755, 687, 688, 808, 807
756, 688, 689, 809, 808
757, 689, 690, 810, 809
758, 690, 691, 811, 810
759, 691, 692, 812, 811
760, 692, 693, 813, 812
761, 693, 694, 814, 813
762, 694, 695, 815, 814
763, 695, 696, 816, 815
764, 696, 697, 817, 816
765, 697, 698, 818, 817
766, 698, 699, 819, 818
767, 699, 700, 820, 819
768, 700, 581, 701, 820
769, 701, 702, 822, 821
770, 702, 703, 823, 822
771, 703, 704, 824, 823
772, 704, 705, 825, 824
773, 705, 706, 826, 825
774, 706, 707, 827, 826
775, 707, 708, 828, 827
776, 708, 709, 829, 828
777, 709, 710, 830, 829
778, 710, 711, 831, 830
779, 711, 712, 832, 831
780, 712, 713, 833, 832
781, 713, 714, 834, 833
782, 714, 715, 835, 834
783, 715, 716, 836, 835
784, 716, 717, 837, 836
785, 717, 718, 838, 837
786, 718, 719, 839, 838
787, 719, 720, 840, 839
788, 720, 721, 841, 840
789, 721, 722, 842, 841
790, 722, 723, 843, 842
791, 723, 724, 844, 843
792, 724, 725, 845, 844
793, 725, 726, 846, 845
794, 726, 727, 847, 846
795, 727, 728, 848, 847
796, 728, 729, 849, 848
797, 729, 730, 850, 849
798, 730, 731, 851, 850
799, 731, 732, 852, 851
800, 732, 733, 853, 852
801, 733, 734, 854, 853
802, 734, 735, 855, 854
803, 735, 736, 856, 855
804, 736, 737, 857, 856
805, 737, 738, 858, 857
806, 738, 739, 859, 858
807, 739, 740, 860, 859
808, 740, 741, 861, 860
809, 741, 742, 862, 861
810, 742, 743, 863, 862
811, 743, 744, 864, 863
812, 744, 745, 865, 864
813, 745, 746, 866, 865
814, 746, 747, 867, 866
815, 747, 748, 868, 867
816, 748, 749, 869, 868
817, 749, 750, 870, 869
818, 750, 751, 871, 870
819, 751, 752, 872, 871
820, 752, 753, 873, 872
821, 753, 754, 874, 873
822, 754, 755, 875, 874
823, 755, 756, 876, 875
824, 756, 757, 877, 876
825, 757, 758, 878, 877
826, 758, 759, 879, 878
827, 759, 760, 880, 879
828, 760, 761, 881, 880
829, 761, 762, 882, 881
830, 762, 763, 883, 882
831, 763, 764, 884, 883
832, 764, 765, 885, 884
833, 765, 766, 886, 885
834, 766, 767, 887, 886
835, 767, 768, 888, 887
836, 768, 769, 889, 888
837, 769, 770, 890, 889
838, 770, 771, 891, 890
839, 771, 772, 892, 891
840, 772, 773, 893, 892
841, 773, 774, 894, 893
842, 774, 775, 895, 894
843, 775, 776, 896, 895
844, 776, 777, 897, 896
845, 777, 778, 898, 897
846, 778, 779, 899, 898
847, 779, 780, 900, 899
848, 780, 781, 901, 900
849, 781, 782, 902, 901
850, 782, 783, 903, 902
851, 783, 784, 904, 903
852, 784, 785, 905, 904
853, 785, 786, 906, 905
854, 786, 787, 907, 906
855, 787, 788, 908, 907
856, 788, 789, 909, 908
857, 789, 790, 910, 909
858, 790, 791, 911, 910
859, 791, 792, 912, 911
860, 792, 793, 913, 912
861, 793, 794, 914, 913
862, 794, 795, 915, 914
863, 795, 796, 916, 915
864, 796, 797, 917, 916
865, 797, 798, 918, 917
866, 798, 799, 919, 918
867, 799, 800, 920, 919
868, 800, 801, 921, 920
869, 801, 802, 922, 921
870, 802, 803, 923, 922
871, 803, 804, 924, 923
872, 804, 805, 925, 924
873, 805, 806, 926, 925
874, 806, 807, 927, 926
875, 807, 808, 928, 927
876, 808, 809, 929, 928
877, 809, 810, 930, 929
878, 810, 811, 931, 930
879, 811, 812, 932, 931
880, 812, 813, 933, 932
881, 813, 814, 934, 933
882, 814, 815, 935, 934
883, 815, 816, 936, 935
884, 816, 817, 937, 936
885, 817, 818, 938, 937
886, 818, 819, 939, 938
887, 819, 820, 940, 939
888, 820, 701, 821, 940
889, 821, 822, 942, 941
890, 822, 823, 943, 942
891, 823, 824, 944, 943
892, 824, 825, 945, 944
893, 825, 826, 946, 945
894, 826, 827, 947, 946
895, 827, 828, 948, 947
896, 828, 829, 949, 948
897, 829, 830, 950, 949
898, 830, 831, 951, 950
899, 831, 832, 952, 951
900, 832, 833, 953, 952
901, 833, 834, 954, 953
902, 834, 835, 955, 954
903, 835, 836, 956, 955
904, 836, 837, 957, 956
905, 837, 838, 958, 957
906, 838, 839, 959, 958
907, 839, 840, 960, 959
908, 840, 841, 961, 960
909, 841, 842, 962, 961
910, 842, 843, 963, 962
911, 843, 844, 964, 963
912, 844, 845, 965, 964
913, 845, 846, 966, 965
914, 846, 847, 967, 966
915, 847, 848, 968, 967
916, 848, 849, 969, 968
917, 849, 850, 970, 969
918, 850, 851, 971, 970
919, 851, 852, 972, 971
920, 852, 853, 973, 972
921, 853, 854, 974, 973
922, 854, 855, 975, 974
923, 855, 856, 976, 975
924, 856, 857, 977, 976
925, 857, 858, 978, 977
926, 858, 859, 979, 978
927, 859, 860, 980, 979
928, 860, 861, 981, 980
929, 861, 862, 982, 981
930, 862, 863, 983, 982
931, 863, 864, 984, 983
932, 864, 865, 985, 984
933, 865, 866, 986, 985
934, 866, 867, 987, 986
935, 867, 868, 988, 987
936, 868, 869, 989, 988
937, 869, 870, 990, 989
938, 870, 871, 991, 990
939, 871, 872, 992, 991
940, 872, 873, 993, 992
941, 873, 874, 994, 993
942, 874, 875, 995, 994
943, 875, 876, 996, 995
944, 876, 877, 997, 996
945, 877, 878, 998, 997
946, 878, 879, 999, 998
947, 879, 880, 1000, 999
948, 880, 881, 1001, 1000
949, 881, 882, 1002, 1001
950, 882, 883, 1003, 1002
951, 883, 884, 1004, 1003
952, 884, 885, 1005, 1004
953, 885, 886, 1006, 1005
954, 886, 887, 1007, 1006
955, 887, 888, 1008, 1007
956, 888, 889, 1009, 1008
957, 889, 890, 1010, 1009
958, 890, 891, 1011, 1010
959, 891, 892, 1012, 1011
960, 892, 893, 1013, 1012
961, 893, 894, 1014, 1013
962, 894, 895, 1015, 1014
963, 895, 896, 1016, 1015
964, 896, 897, 1017, 1016
965, 897, 898, 1018, 1017
966, 898, 899, 1019, 1018
967, 899, 900, 1020, 1019
968, 900, 901, 1021, 1020
969, 901, 902, 1022, 1021
970, 902, 903, 1023, 1022
971, 903, 904, 1024, 1023
972, 904, 905, 1025, 1024
973, 905, 906, 1026, 1025
974, 906, 907, 1027, 1026
975, 907, 908, 1028, 1027
976, 908, 909, 1029, 1028
977, 909, 910, 1030, 1029
978, 910, 911, 1031, 1030
979, 911, 912, 1032, 1031
980, 912, 913, 1033, 1032
981, 913, 914, 1034, 1033
982, 914, 915, 1035, 1034
983, 915, 916, 1036, 1035
984, 916, 917, 1037, 1036
985, 917, 918, 1038, 1037
986, 918, 919, 1039, 1038
987, 919, 920, 1040, 1039
988, 920, 921, 1041, 1040
989, 921, 922, 1042, 1041
990, 922, 923, 1043, 1042
991, 923, 924, 1044, 1043
992, 924, 925, 1045, 1044
993, 925, 926, 1046, 1045
994, 926, 927, 1047, 1046
995, 927, 928, 1048, 1047
996, 928, 929, 1049, 1048
997, 929, 930, 1050, 1049
998, 930, 931, 1051, 1050
999, 931, 932, 1052, 1051
1000, 932, 933, 1053, 1052
1001, 933, 934, 1054, 1053
1002, 934, 935, 1055, 1054
1003, 935, 936, 1056, 1055
1004, 936, 937, 1057, 1056
1005, 937, 938, 1058, 1057
1006, 938, 939, 1059, 1058
1007, 939, 940, 1060, 1059
1008, 940, 821, 941, 1060
1009, 941, 942, 1062, 1061
1010, 942, 943, 1063, 1062
1011, 943, 944, 1064, 1063
1012, 944, 945, 1065, 1064
1013, 945, 946, 1066, 1065
1014, 946, 947, 1067, 1066
1015, 947, 948, 1068, 1067
1016, 948, 949, 1069, 1068
1017, 949, 950, 1070, 1069
1018, 950, 951, 1071, 1070
1019, 951, 952, 1072, 1071
1020, 952, 953, 1073, 1072
1021, 953, 954, 1074, 1073
1022, 954, 955, 1075, 1074
1023, 955, 956, 1076, 1075
1024, 956, 957, 1077, 1076
1025, 957, 958, 1078, 1077
1026, 958, 959, 1079, 1078
1027, 959, 960, 1080, 1079
1028, 960, 961, 1081, 1080
1029, 961, 962, 1082, 1081
1030, 962, 963, 1083, 1082
1031, 963, 964, 1084, 1083
1032, 964, 965, 1085, 1084
1033, 965, 966, 1086, 1085
1034, 966, 967, 1087, 1086
1035, 967, 968, 1088, 1087
1036, 968, 969, 1089, 1088
1037, 969, 970, 1090, 1089
1038, 970, 971, 1091, 1090
1039, 971, 972, 1092, 1091
1040, 972, 973, 1093, 1092
1041, 973, 974, 1094, 1093
1042, 974, 975, 1095, 1094
1043, 975, 976, 1096, 1095
1044, 976, 977, 1097, 1096
1045, 977, 978, 1098, 1097
1046, 978, 979, 1099, 1098
1047, 979, 980, 1100, 1099
1048, 980, 981, 1101, 1100
1049, 981, 982, 1102, 1101
1050, 982, 983, 1103, 1102
1051, 983, 984, 1104, 1103
1052, 984, 985, 1105, 1104
1053, 985, 986, 1106, 1105
1054, 986, 987, 1107, 1106
1055, 987, 988, 1108, 1107
1056, 988, 989, 1109, 1108
1057, 989, 990, 1110, 1109
1058, 990, 991, 1111, 1110
1059, 991, 992, 1112, 1111
1060, 992, 993, 1113, 1112
1061, 993, 994, 1114, 1113
1062, 994, 995, 1115, 1114
1063, 995, 996, 1116, 1115
1064, 996, 997, 1117, 1116
1065, 997, 998, 1118, 1117
1066, 998, 999, 1119, 1118
1067, 999, 1000, 1120, 1119
1068, 1000, 1001, 1121, 1120
1069, 1001, 1002, 1122, 1121
1070, 1002, 1003, 1123, 1122
1071, 1003, 1004, 1124, 1123
1072, 1004, 1005, 1125, 1124
1073, 1005, 1006, 1126, 1125
1074, 1006, 1007, 1127, 1126
1075, 1007, 1008, 1128, 1127
1076, 1008, 1009, 1129, 1128
1077, 1009, 1010, 1130, 1129
1078, 1010, 1011, 1131, 1130
1079, 1011, 1012, 1132, 1131
1080, 1012, 1013, 1133, 1132
1081, 1013, 1014, 1134, 1133
1082, 1014, 1015, 1135, 1134
1083, 1015, 1016, 1136, 1135
1084, 1016, 1017, 1137, 1136
1085, 1017, 1018, 1138, 1137
1086, 1018, 1019, 1139, 1138
1087, 1019, 1020, 1140, 1139
1088, 1020, 1021, 1141, 1140
1089, 1021, 1022, 1142, 1141
1090, 1022, 1023, 1143, 1142
1091, 1023, 1024, 1144, 1143
1092, 1024, 1025, 1145, 1144
1093, 1025, 1026, 1146, 1145
1094, 1026, 1027, 1147, 1146
1095, 1027, 1028, 1148, 1147
1096, 1028, 1029, 1149, 1148
1097, 1029, 1030, 1150, 1149
1098, 1030, 1031, 1151, 1150
1099, 1031, 1032, 1152, 1151
1100, 1032, 1033, 1153, 1152
1101, 1033, 1034, 1154, 1153
1102, 1034, 1035, 1155, 1154
1103, 1035, 1036, 1156, 1155
1104, 1036, 1037, 1157, 1156
1105, 1037, 1038, 1158, 1157
1106, 1038, 1039, 1159, 1158
1107, 1039, 1040, 1160, 1159
1108, 1040, 1041, 1161, 1160
1109, 1041, 1042, 1162, 1161
1110, 1042, 1043, 1163, 1162
1111, 1043, 1044, 1164, 1163
1112, 1044, 1045, 1165, 1164
1113, 1045, 1046, 1166, 1165
1114, 1046, 1047, 1167, 1166
1115, 1047, 1048, 1168, 1167
1116, 1048, 1049, 1169, 1168
1117, 1049, 1050, 1170, 1169
1118, 1050, 1051, 1171, 1170
1119, 1051, 1052, 1172, 1171
1120, 1052, 1053, 1173, 1172
1121, 1053, 1054, 1174, 1173
1122, 1054, 1055, 1175, 1174
1123, 1055, 1056, 1176, 1175
1124, 1056, 1057, 1177, 1176
1125, 1057, 1058, 1178, 1177
1126, 1058, 1059, 1179, 1178
1127, 1059, 1060, 1180, 1179
1128, 1060, 941, 1061, 1180
1129, 1061, 1062, 1182, 1181
1130, 1062, 1063, 1183, 1182
1131, 1063, 1064, 1184, 1183
1132, 1064, 1065, 1185, 1184
1133, 1065, 1066, 1186, 1185
1134, 1066, 1067, 1187, 1186
1135, 1067, 1068, 1188, 1187
1136, 1068, 1069, 1189, 1188
1137, 1069, 1070, 1190, 1189
1138, 1070, 1071, 1191, 1190
1139, 1071, 1072, 1192, 1191
1140, 1072, 1073, 1193, 1192
1141, 1073, 1074, 1194, 1193
1142, 1074, 1075, 1195, 1194
1143, 1075, 1076, 1196, 1195
1144, 1076, 1077, 1197, 1196
1145, 1077, 1078, 1198, 1197
1146, 1078, 1079, 1199, 1198
1147, 1079, 1080, 1200, 1199
1148, 1080, 1081, 1201, 1200
1149, 1081, 1082, 1202, 1201
1150, 1082, 1083, 1203, 1202
1151, 1083, 1084, 1204, 1203
1152, 1084, 1085, 1205, 1204
1153, 1085, 1086, 1206, 1205
1154, 1086, 1087, 1207, 1206
1155, 1087, 1088, 1208, 1207
1156, 1088, 1089, 1209, 1208
1157, 1089, 1090, 1210, 1209
1158, 1090, 1091, 1211, 1210
1159, 1091, 1092, 1212, 1211
1160, 1092, 1093, 1213, 1212
1161, 1093, 1094, 1214, 1213
1162, 1094, 1095, 1215, 1214
1163, 1095, 1096, 1216, 1215
1164, 1096, 1097, 1217, 1216
1165, 1097, 1098, 1218, 1217
1166, 1098, 1099, 1219, 1218
1167, 1099, 1100, 1220, 1219
1168, 1100, 1101, 1221, 1220
1169, 1101, 1102, 1222, 1221
1170, 1102, 1103, 1223, 1222
1171, 1103, 1104, 1224, 1223
1172, 1104, 1105, 1225, 1224
1173, 1105, 1106, 1226, 1225
1174, 1106, 1107, 1227, 1226
1175, 1107, 1108, 1228, 1227
1176, 1108, 1109, 1229, 1228
1177, 1109, 1110, 1230, 1229
1178, 1110, 1111, 1231, 1230
1179, 1111, 1112, 1232, 1231
1180, 1112, 1113, 1233, 1232
1181, 1113, 1114, 1234, 1233
1182, 1114, 1115, 1235, 1234
1183, 1115, 1116, 1236, 1235
1184, 1116, 1117, 1237, 1236
1185, 1117, 1118, 1238, 1237
1186, 1118, 1119, 1239, 1238
1187, 1119, 1120, 1240, 1239
1188, 1120, 1121, 1241, 1240
1189, 1121, 1122, 1242, 1241
1190, 1122, 1123, 1243, 1242
1191, 1123, 1124, 1244, 1243
1192, 1124, 1125, 1245, 1244
1193, 1125, 1126, 1246, 1245
1194, 1126, 1127, 1247, 1246
1195, 1127, 1128, 1248, 1247
1196, 1128, 1129, 1249, 1248
1197, 1129, 1130, 1250, 1249
1198, 1130, 1131, 1251, 1250
1199, 1131, 1132, 1252, 1251
1200, 1132, 1133, 1253, 1252
1201, 1133, 1134, 1254, 1253
1202, 1134, 1135, 1255, 1254
1203, 1135, 1136, 1256, 1255
1204, 1136, 1137, 1257, 1256
1205, 1137, 1138, 1258, 1257
1206, 1138, 1139, 1259, 1258
1207, 1139, 1140, 1260, 1259
1208, 1140, 1141, 1261, 1260
1209, 1141, 1142, 1262, 1261
1210, 1142, 1143, 1263, 1262
1211, 1143, 1144, 1264, 1263
1212, 1144, 1145, 1265, 1264
1213, 1145, 1146, 1266, 1265
1214, 1146, 1147, 1267, 1266
1215, 1147, 1148, 1268, 1267
1216, 1148, 1149, 1269, 1268
1217, 1149, 1150, 1270, 1269
1218, 1150, 1151, 1271, 1270
1219, 1151, 1152, 1272, 1271
1220, 1152, 1153, 1273, 1272
1221, 1153, 1154, 1274, 1273
1222, 1154, 1155, 1275, 1274
1223, 1155, 1156, 1276, 1275
1224, 1156, 1157, 1277, 1276
1225, 1157, 1158, 1278, 1277
1226, 1158, 1159, 1279, 1278
1227, 1159, 1160, 1280, 1279
1228, 1160, 1161, 1281, 1280
1229, 1161, 1162, 1282, 1281
1230, 1162, 1163, 1283, 1282
1231, 1163, 1164, 1284, 1283
1232, 1164, 1165, 1285, 1284
1233, 1165, 1166, 1286, 1285
1234, 1166, 1167, 1287, 1286
1235, 1167, 1168, 1288, 1287
1236, 1168, 1169, 1289, 1288
1237, 1169, 1170, 1290, 1289
1238, 1170, 1171, 1291, 1290
1239, 1171, 1172, 1292, 1291
1240, 1172, 1173, 1293, 1292
1241, 1173, 1174, 1294, 1293
1242, 1174, 1175, 1295, 1294
1243, 1175, 1176, 1296, 1295
1244, 1176, 1177, 1297, 1296
1245, 1177, 1178, 1298, 1297
1246, 1178, 1179, 1299, 1298
1247, 1179, 1180, 1300, 1299
1248, 1180, 1061, 1181, 1300
1249, 1181, 1182, 1302, 1301
1250, 1182, 1183, 1303, 1302
1251, 1183, 1184, 1304, 1303
1252, 1184, 1185, 1305, 1304
1253, 1185, 1186, 1306, 1305
1254, 1186, 1187, 1307, 1306
1255, 1187, 1188, 1308, 1307
1256, 1188, 1189, 1309, 1308
1257, 1189, 1190, 1310, 1309
1258, 1190, 1191, 1311, 1310
1259, 1191, 1192, 1312, 1311
1260, 1192, 1193, 1313, 1312
1261, 1193, 1194, 1314, 1313
1262, 1194, 1195, 1315, 1314
1263, 1195, 1196, 1316, 1315
1264, 1196, 1197, 1317, 1316
1265, 1197, 1198, 1318, 1317
1266, 1198, 1199, 1319, 1318
1267, 1199, 1200, 1320, 1319
1268, 1200, 1201, 1321, 1320
1269, 1201, 1202, 1322, 1321
1270, 1202, 1203, 1323, 1322
1271, 1203, 1204, 1324, 1323
1272, 1204, 1205, 1325, 1324
1273, 1205, 1206, 1326, 1325
1274, 1206, 1207, 1327, 1326
1275, 1207, 1208, 1328, 1327
1276, 1208, 1209, 1329, 1328
1277, 1209, 1210, 1330, 1329
1278, 1210, 1211, 1331, 1330
1279, 1211, 1212, 1332, 1331
1280, 1212, 1213, 1333, 1332
1281, 1213, 1214, 1334, 1333
1282, 1214, 1215, 1335, 1334
1283, 1215, 1216, 1336, 1335
1284, 1216, 1217, 1337, 1336
1285, 1217, 1218, 1338, 1337
1286, 1218, 1219, 1339, 1338
1287, 1219, 1220, 1340, 1339
1288, 1220, 1221, 1341, 1340
1289, 1221, 1222, 1342, 1341
1290, 1222, 1223, 1343, 1342
1291, 1223, 1224, 1344, 1343
1292, 1224, 1225, 1345, 1344
1293, 1225, 1226, 1346, 1345
1294, 1226, 1227, 1347, 1346
1295, 1227, 1228, 1348, 1347
1296, 1228, 1229, 1349, 1348
1297, 1229, 1230, 1350, 1349
1298, 1230, 1231, 1351, 1350
1299, 1231, 1232, 1352, 1351
1300, 1232, 1233, 1353, 1352
1301, 1233, 1234, 1354, 1353
1302, 1234, 1235, 1355, 1354
1303, 1235, 1236, 1356, 1355
1304, 1236, 1237, 1357, 1356
1305, 1237, 1238, 1358, 1357
1306, 1238, 1239, 1359, 1358
1307, 1239, 1240, 1360, 1359
1308, 1240, 1241, 1361, 1360
1309, 1241, 1242, 1362, 1361
1310, 1242, 1243, 1363, 1362
1311, 1243, 1244, 1364, 1363
1312, 1244, 1245, 1365, 1364
1313, 1245, 1246, 1366, 1365
1314, 1246, 1247, 1367, 1366
1315, 1247, 1248, 1368, 1367
1316, 1248, 1249, 1369, 1368
1317, 1249, 1250, 1370, 1369
1318, 1250, 1251, 1371, 1370
1319, 1251, 1252, 1372, 1371
1320, 1252, 1253, 1373, 1372
1321, 1253, 1254, 1374, 1373
1322, 1254, 1255, 1375, 1374
1323, 1255, 1256, 1376, 1375
1324, 1256, 1257, 1377, 1376
1325, 1257, 1258, 1378, 1377
1326, 1258, 1259, 1379, 1378
1327, 1259, 1260, 1380, 1379
1328, 1260, 1261, 1381, 1380
1329, 1261, 1262, 1382, 1381
1330, 1262, 1263, 1383, 1382
1331, 1263, 1264, 1384, 1383
1332, 1264, 1265, 1385, 1384
1333, 1265, 1266, 1386, 1385
1334, 1266, 1267, 1387, 1386
1335, 1267, 1268, 1388, 1387
1336, 1268, 1269, 1389, 1388
1337, 1269, 1270, 1390, 1389
1338, 1270, 1271, 1391, 1390
1339, 1271, 1272, 1392, 1391
1340, 1272, 1273, 1393, 1392
1341, 1273, 1274, 1394, 1393
1342, 1274, 1275, 1395, 1394
1343, 1275, 1276, 1396, 1395
1344, 1276, 1277, 1397, 1396
1345, 1277, 1278, 1398, 1397
1346, 1278, 1279, 1399, 1398
1347, 1279, 1280, 1400, 1399
1348, 1280, 1281, 1401, 1400
1349, 1281, 1282, 1402, 1401
1350, 1282, 1283, 1403, 1402
1351, 1283, 1284, 1404, 1403
1352, 1284, 1285, 1405, 1404
1353, 1285, 1286, 1406, 1405
1354, 1286, 1287, 1407, 1406
1355, 1287, 1288, 1408, 1407
1356, 1288, 1289, 1409, 1408
1357, 1289, 1290, 1410, 1409
1358, 1290, 1291, 1411, 1410
1359, 1291, 1292, 1412, 1411
1360, 1292, 1293, 1413, 1412
1361, 1293, 1294, 1414, 1413
1362, 1294, 1295, 1415, 1414
1363, 1295, 1296, 1416, 1415
1364, 1296, 1297, 1417, 1416
1365, 1297, 1298, 1418, 1417
1366, 1298, 1299, 1419, 1418
1367, 1299, 1300, 1420, 1419
1368, 1300, 1181, 1301, 1420
1369, 1301, 1302, 1422, 1421
1370, 1302, 1303, 1423, 1422
1371, 1303, 1304, 1424, 1423
1372, 1304, 1305, 1425, 1424
1373, 1305, 1306, 1426, 1425
1374, 1306, 1307, 1427, 1426
1375, 1307, 1308, 1428, 1427
1376, 1308, 1309, 1429, 1428
1377, 1309, 1310, 1430, 1429
1378, 1310, 1311, 1431, 1430
1379, 1311, 1312, 1432, 1431
1380, 1312, 1313, 1433, 1432
1381, 1313, 1314, 1434, 1433
1382, 1314, 1315, 1435, 1434
1383, 1315, 1316, 1436, 1435
1384, 1316, 1317, 1437, 1436
1385, 1317, 1318, 1438, 1437
1386, 1318, 1319, 1439, 1438
1387, 1319, 1320, 1440, 1439
1388, 1320, 1321, 1441, 1440
1389, 1321, 1322, 1442, 1441
1390, 1322, 1323, 1443, 1442
1391, 1323, 1324, 1444, 1443
1392, 1324, 1325, 1445, 1444
1393, 1325, 1326, 1446, 1445
1394, 1326, 1327, 1447, 1446
1395, 1327, 1328, 1448, 1447
1396, 1328, 1329, 1449, 1448
1397, 1329, 1330, 1450, 1449
1398, 1330, 1331, 1451, 1450
1399, 1331, 1332, 1452, 1451
1400, 1332, 1333, 1453, 1452
1401, 1333, 1334, 1454, 1453
1402, 1334, 1335, 1455, 1454
1403, 1335, 1336, 1456, 1455
1404, 1336, 1337, 1457, 1456
1405, 1337, 1338, 1458, 1457
1406, 1338, 1339, 1459, 1458
1407, 1339, 1340, 1460, 1459
1408, 1340, 1341, 1461, 1460
1409, 1341, 1342, 1462, 1461
1410, 1342, 1343, 1463, 1462
1411, 1343, 1344, 1464, 1463
1412, 1344, 1345, 1465, 1464
1413, 1345, 1346, 1466, 1465
1414, 1346, 1347, 1467, 1466
1415, 1347, 1348, 1468, 1467
1416, 1348, 1349, 1469, 1468
1417, 1349, 1350, 1470, 1469
1418, 1350, 1351, 1471, 1470
1419, 1351, 1352, 1472, 1471
1420, 1352, 1353, 1473, 1472
1421, 1353, 1354, 1474, 1473
1422, 1354, 1355, 1475, 1474
1423, 1355, 1356, 1476, 1475
1424, 1356, 1357, 1477, 1476
1425, 1357, 1358, 1478, 1477
1426, 1358, 1359, 1479, 1478
1427, 1359, 1360, 1480, 1479
1428, 1360, 1361, 1481, 1480
1429, 1361, 1362, 1482, 1481
1430, 1362, 1363, 1483, 1482
1431, 1363, 1364, 1484, 1483
1432, 1364, 1365, 1485, 1484
1433, 1365, 1366, 1486, 1485
1434, 1366, 1367, 1487, 1486
1435, 1367, 1368, 1488, 1487
1436, 1368, 1369, 1489, 1488
1437, 1369, 1370, 1490, 1489
1438, 1370, 1371, 1491, 1490
1439, 1371, 1372, 1492, 1491
1440, 1372, 1373, 1493, 1492
1441, 1373, 1374, 1494, 1493
1442, 1374, 1375, 1495, 1494
1443, 1375, 1376, 1496, 1495
1444, 1376, 1377, 1497, 1496
1445, 1377, 1378, 1498, 1497
1446, 1378, 1379, 1499, 1498
1447, 1379, 1380, 1500, 1499
1448, 1380, 1381, 1501, 1500
1449, 1381, 1382, 1502, 1501
1450, 1382, 1383, 1503, 1502
1451, 1383, 1384, 1504, 1503
1452, 1384, 1385, 1505, 1504
1453, 1385, 1386, 1506, 1505
1454, 1386, 1387, 1507, 1506
1455, 1387, 1388, 1508, 1507
1456, 1388, 1389, 1509, 1508
1457, 1389, 1390, 1510, 1509
1458, 1390, 1391, 1511, 1510
1459, 1391, 1392, 1512, 1511
1460, 1392, 1393, 1513, 1512
1461, 1393, 1394, 1514, 1513
1462, 1394, 1395, 1515, 1514
1463, 1395, 1396, 1516, 1515
1464, 1396, 1397, 1517, 1516
1465, 1397, 1398, 1518, 1517
1466, 1398, 1399, 1519, 1518
1467, 1399, 1400, 1520, 1519
1468, 1400, 1401, 1521, 1520
1469, 1401, 1402, 1522, 1521
1470, 1402, 1403, 1523, 1522
1471, 1403, 1404, 1524, 1523
1472, 1404, 1405, 1525, 1524
1473, 1405, 1406, 1526, 1525
1474, 1406, 1407, 1527, 1526
1475, 1407, 1408, 1528, 1527
1476, 1408, 1409, 1529, 1528
1477, 1409, 1410, 1530, 1529
1478, 1410, 1411, 1531, 1530
1479, 1411, 1412, 1532, 1531
1480, 1412, 1413, 1533, 1532
1481, 1413, 1414, 1534, 1533
1482, 1414, 1415, 1535, 1534
1483, 1415, 1416, 1536, 1535
1484, 1416, 1417, 1537, 1536
1485, 1417, 1418, 1538, 1537
1486, 1418, 1419, 1539, 1538
1487, 1419, 1420, 1540, 1539
1488, 1420, 1301, 1421, 1540
1489, 1421, 1422, 1542, 1541
1490, 1422, 1423, 1543, 1542
1491, 1423, 1424, 1544, 1543
1492, 1424, 1425, 1545, 1544
1493, 1425, 1426, 1546, 1545
1494, 1426, 1427, 1547, 1546
1495, 1427, 1428, 1548, 1547
1496, 1428, 1429, 1549, 1548
1497, 1429, 1430, 1550, 1549
1498, 1430, 1431, 1551, 1550
1499, 1431, 1432, 1552, 1551
1500, 1432, 1433, 1553, 1552
1501, 1433, 1434, 1554, 1553
1502, 1434, 1435, 1555, 1554
1503, 1435, 1436, 1556, 1555
1504, 1436, 1437, 1557, 1556
1505, 1437, 1438, 1558, 1557
1506, 1438, 1439, 1559, 1558
1507, 1439, 1440, 1560, 1559
1508, 1440, 1441, 1561, 1560
1509, 1441, 1442, 1562, 1561
1510, 1442, 1443, 1563, 1562
1511, 1443, 1444, 1564, 1563
1512, 1444, 1445, 1565, 1564
1513, 1445, 1446, 1566, 1565
1514, 1446, 1447, 1567, 1566
1515, 1447, 1448, 1568, 1567
1516, 1448, 1449, 1569, 1568
1517, 1449, 1450, 1570, 1569
1518, 1450, 1451, 1571, 1570
1519, 1451, 1452, 1572, 1571
1520, 1452, 1453, 1573, 1572
1521, 1453, 1454, 1574, 1573
1522, 1454, 1455, 1575, 1574
1523, 1455, 1456, 1576, 1575
1524, 1456, 1457, 1577, 1576
1525, 1457, 1458, 1578, 1577
1526, 1458, 1459, 1579, 1578
1527, 1459, 1460, 1580, 1579
1528, 1460, 1461, 1581, 1580
1529, 1461, 1462, 1582, 1581
1530, 1462, 1463, 1583, 1582
1531, 1463, 1464, 1584, 1583
1532, 1464, 1465, 1585, 1584
1533, 1465, 1466, 1586, 1585
1534, 1466, 1467, 1587, 1586
1535, 1467, 1468, 1588, 1587
1536, 1468, 1469, 1589, 1588
1537, 1469, 1470, 1590, 1589
1538, 1470, 1471, 1591, 1590
1539, 1471, 1472, 1592, 1591
1540, 1472, 1473, 1593, 1592
1541, 1473, 1474, 1594, 1593
1542, 1474, 1475, 1595, 1594
1543, 1475, 1476, 1596, 1595
1544, 1476, 1477, 1597, 1596
1545, 1477, 1478, 1598, 1597
1546, 1478, 1479, 1599, 1598
1547, 1479, 1480, 1600, 1599
1548, 1480, 1481, 1601, 1600
1549, 1481, 1482, 1602, 1601
1550, 1482, 1483, 1603, 1602
1551, 1483, 1484, 1604, 1603
1552, 1484, 1485, 1605, 1604
1553, 1485, 1486, 1606, 1605
1554, 1486, 1487, 1607, 1606
1555, 1487, 1488, 1608, 1607
1556, 1488, 1489, 1609, 1608
1557, 1489, 1490, 1610, 1609
1558, 1490, 1491, 1611, 1610
1559, 1491, 1492, 1612, 1611
1560, 1492, 1493, 1613, 1612
1561, 1493, 1494, 1614, 1613
1562, 1494, 1495, 1615, 1614
1563, 1495, 1496, 1616, 1615
1564, 1496, 1497, 1617, 1616
1565, 1497, 1498, 1618, 1617
1566, 1498, 1499, 1619, 1618
1567, 1499, 1500, 1620, 1619
1568, 1500, 1501, 1621, 1620
1569, 1501, 1502, 1622, 1621
1570, 1502, 1503, 1623, 1622
1571, 1503, 1504, 1624, 1623
1572, 1504, 1505, 1625, 1624
1573, 1505, 1506, 1626, 1625
1574, 1506, 1507, 1627, 1626
1575, 1507, 1508, 1628, 1627
1576, 1508, 1509, 1629, 1628
1577, 1509, 1510, 1630, 1629
1578, 1510, 1511, 1631, 1630
1579, 1511, 1512, 1632, 1631
1580, 1512, 1513, 1633, 1632
1581, 1513, 1514, 1634, 1633
1582, 1514, 1515, 1635, 1634
1583, 1515, 1516, 1636, 1635
1584, 1516, 1517, 1637, 1636
1585, 1517, 1518, 1638, 1637
1586, 1518, 1519, 1639, 1638
1587, 1519, 1520, 1640, 1639
1588, 1520, 1521, 1641, 1640
1589, 1521, 1522, 1642, 1641
1590, 1522, 1523, 1643, 1642
1591, 1523, 1524, 1644, 1643
1592, 1524, 1525, 1645, 1644
1593, 1525, 1526, 1646, 1645
1594, 1526, 1527, 1647, 1646
1595, 1527, 1528, 1648, 1647
1596, 1528, 1529, 1649, 1648
1597, 1529, 1530, 1650, 1649
1598, 1530, 1531, 1651, 1650
1599, 1531, 1532, 1652, 1651
1600, 1532, 1533, 1653, 1652
1601, 1533, 1534, 1654, 1653
1602, 1534, 1535, 1655, 1654
1603, 1535, 1536, 1656, 1655
1604, 1536, 1537, 1657, 1656
1605, 1537, 1538, 1658, 1657
1606, 1538, 1539, 1659, 1658
1607, 1539, 1540, 1660, 1659
1608, 1540, 1421, 1541, 1660
1609, 1541, 1542, 1662, 1661
1610, 1542, 1543, 1663, 1662
1611, 1543, 1544, 1664, 1663
1612, 1544, 1545, 1665, 1664
1613, 1545, 1546, 1666, 1665
1614, 1546, 1547, 1667, 1666
1615, 1547, 1548, 1668, 1667
1616, 1548, 1549, 1669, 1668
1617, 1549, 1550, 1670, 1669
1618, 1550, 1551, 1671, 1670
1619, 1551, 1552, 1672, 1671
1620, 1552, 1553, 1673, 1672
1621, 1553, 1554, 1674, 1673
1622, 1554, 1555, 1675, 1674
1623, 1555, 1556, 1676, 1675
1624, 1556, 1557, 1677, 1676
1625, 1557, 1558, 1678, 1677
1626, 1558, 1559, 1679, 1678
1627, 1559, 1560, 1680, 1679
1628, 1560, 1561, 1681, 1680
1629, 1561, 1562, 1682, 1681
1630, 1562, 1563, 1683, 1682
1631, 1563, 1564, 1684, 1683
1632, 1564, 1565, 1685, 1684
1633, 1565, 1566, 1686, 1685
1634, 1566, 1567, 1687, 1686
1635, 1567, 1568, 1688, 1687
1636, 1568, 1569, 1689, 1688
1637, 1569, 1570, 1690, 1689
1638, 1570, 1571, 1691, 1690
1639, 1571, 1572, 1692, 1691
1640, 1572, 1573, 1693, 1692
1641, 1573, 1574, 1694, 1693
1642, 1574, 1575, 1695, 1694
1643, 1575, 1576, 1696, 1695
1644, 1576, 1577, 1697, 1696
1645, 1577, 1578, 1698, 1697
1646, 1578, 1579, 1699, 1698
1647, 1579, 1580, 1700, 1699
1648, 1580, 1581, 1701, 1700
1649, 1581, 1582, 1702, 1701
1650, 1582, 1583, 1703, 1702
1651, 1583, 1584, 1704, 1703
1652, 1584, 1585, 1705, 1704
1653, 1585, 1586, 1706, 1705
1654, 1586, 1587, 1707, 1706
1655, 1587, 1588, 1708, 1707
1656, 1588, 1589, 1709, 1708
1657, 1589, 1590, 1710, 1709
1658, 1590, 1591, 1711, 1710
1659, 1591, 1592, 1712, 1711
1660, 1592, 1593, 1713, 1712
1661, 1593, 1594, 1714, 1713
1662, 1594, 1595, 1715, 1714
1663, 1595, 1596, 1716, 1715
1664, 1596, 1597, 1717, 1716
1665, 1597, 1598, 1718, 1717
1666, 1598, 1599, 1719, 1718
1667, 1599, 1600, 1720, 1719
1668, 1600, 1601, 1721, 1720
1669, 1601, 1602, 1722, 1721
1670, 1602, 1603, 1723, 1722
1671, 1603, 1604, 1724, 1723
1672, 1604, 1605, 1725, 1724
1673, 1605, 1606, 1726, 1725
1674, 1606, 1607, 1727, 1726
1675, 1607, 1608, 1728, 1727
1676, 1608, 1609, 1729, 1728
1677, 1609, 1610, 1730, 1729
1678, 1610, 1611, 1731, 1730
1679, 1611, 1612, 1732, 1731
1680, 1612, 1613, 1733, 1732
1681, 1613, 1614, 1734, 1733
1682, 1614, 1615, 1735, 1734
1683, 1615, 1616, 1736, 1735
1684, 1616, 1617, 1737, 1736
1685, 1617, 1618, 1738, 1737
1686, 1618, 1619, 1739, 1738
1687, 1619, 1620, 1740, 1739
1688, 1620, 1621, 1741, 1740
1689, 1621, 1622, 1742, 1741
1690, 1622, 1623, 1743, 1742
1691, 1623, 1624, 1744, 1743
1692, 1624, 1625, 1745, 1744
1693, 1625, 1626, 1746, 1745
1694, 1626, 1627, 1747, 1746
1695, 1627, 1628, 1748, 1747
1696, 1628, 1629, 1749, 1748
1697, 1629, 1630, 1750, 1749
1698, 1630, 1631, 1751, 1750
1699, 1631, 1632, 1752, 1751
1700, 1632, 1633, 1753, 1752
1701, 1633, 1634, 1754, 1753
1702, 1634, 1635, 1755, 1754
1703, 1635, 1636, 1756, 1755
1704, 1636, 1637, 1757, 1756
1705, 1637, 1638, 1758, 1757
1706, 1638, 1639, 1759, 1758
1707, 1639, 1640, 1760, 1759
1708, 1640, 1641, 1761, 1760
1709, 1641, 1642, 1762, 1761
1710, 1642, 1643, 1763, 1762
1711, 1643, 1644, 1764, 1763
1712, 1644, 1645, 1765, 1764
1713, 1645, 1646, 1766, 1765
1714, 1646, 1647, 1767, 1766
1715, 1647, 1648, 1768, 1767
1716, 1648, 1649, 1769, 1768
1717, 1649, 1650, 1770, 1769
1718, 1650, 1651, 1771, 1770
1719, 1651, 1652, 1772, 1771
1720, 1652, 1653, 1773, 1772
1721, 1653, 1654, 1774, 1773
1722, 1654, 1655, 1775, 1774
1723, 1655, 1656, 1776, 1775
1724, 1656, 1657, 1777, 1776
1725, 1657, 1658, 1778, 1777
1726, 1658, 1659, 1779, 1778
1727, 1659, 1660, 1780, 1779
1728, 1660, 1541, 1661, 1780
1729, 1661, 1662, 1782, 1781
1730, 1662, 1663, 1783, 1782
1731, 1663, 1664, 1784, 1783
1732, 1664, 1665, 1785, 1784
1733, 1665, 1666, 1786, 1785
1734, 1666, 1667, 1787, 1786
1735, 1667, 1668, 1788, 1787
1736, 1668, 1669, 1789, 1788
1737, 1669, 1670, 1790, 1789
1738, 1670, 1671, 1791, 1790
1739, 1671, 1672, 1792, 1791
1740, 1672, 1673, 1793, 1792
1741, 1673, 1674, 1794, 1793
1742, 1674, 1675, 1795, 1794
1743, 1675, 1676, 1796, 1795
1744, 1676, 1677, 1797, 1796
1745, 1677, 1678, 1798, 1797
1746, 1678, 1679, 1799, 1798
1747, 1679, 1680, 1800, 1799
1748, 1680, 1681, 1801, 1800
1749, 1681, 1682, 1802, 1801
1750, 1682, 1683, 1803, 1802
1751, 1683, 1684, 1804, 1803
1752, 1684, 1685, 1805, 1804
1753, 1685, 1686, 1806, 1805
1754, 1686, 1687, 1807, 1806
1755, 1687, 1688, 1808, 1807
1756, 1688, 1689, 1809, 1808
1757, 1689, 1690, 1810, 1809
1758, 1690, 1691, 1811, 1810
1759, 1691, 1692, 1812, 1811
1760, 1692, 1693, 1813, 1812
1761, 1693, 1694, 1814, 1813
1762, 1694, 1695, 1815, 1814
1763, 1695, 1696, 1816, 1815
1764, 1696, 1697, 1817, 1816
1765, 1697, 1698, 1818, 1817
1766, 1698, 1699, 1819, 1818
1767, 1699, 1700, 1820, 1819
1768, 1700, 1701, 1821, 1820
1769, 1701, 1702, 1822, 1821
1770, 1702, 1703, 1823, 1822
1771, 1703, 1704, 1824, 1823
1772, 1704, 1705, 1825, 1824
1773, 1705, 1706, 1826, 1825
1774, 1706, 1707, 1827, 1826
1775, 1707, 1708, 1828, 1827
1776, 1708, 1709, 1829, 1828
1777, 1709, 1710, 1830, 1829
1778, 1710, 1711, 1831, 1830
1779, 1711, 1712, 1832, 1831
1780, 1712, 1713, 1833, 1832
1781, 1713, 1714, 1834, 1833
1782, 1714, 1715, 1835, 1834
1783, 1715, 1716, 1836, 1835
1784, 1716, 1717, 1837, 1836
1785, 1717, 1718, 1838, 1837
1786, 1718, 1719, 1839, 1838
1787, 1719, 1720, 1840, 1839
1788, 1720, 1721, 1841, 1840
1789, 1721, 1722, 1842, 1841
1790, 1722, 1723, 1843, 1842
1791, 1723, 1724, 1844, 1843
1792, 1724, 1725, 1845, 1844
1793, 1725, 1726, 1846, 1845
1794, 1726, 1727, 1847, 1846
1795, 1727, 1728, 1848, 1847
1796, 1728, 1729, 1849, 1848
1797, 1729, 1730, 1850, 1849
1798, 1730, 1731, 1851, 1850
1799, 1731, 1732, 1852, 1851
1800, 1732, 1733, 1853, 1852
1801, 1733, 1734, 1854, 1853
1802, 1734, 1735, 1855, 1854
1803, 1735, 1736, 1856, 1855
1804, 1736, 1737, 1857, 1856
1805, 1737, 1738, 1858, 1857
1806, 1738, 1739, 1859, 1858
1807, 1739, 1740, 1860, 1859
1808, 1740, 1741, 1861, 1860
1809, 1741, 1742, 1862, 1861
1810, 1742, 1743, 1863, 1862
1811, 1743, 1744, 1864, 1863
1812, 1744, 1745, 1865, 1864
1813, 1745, 1746, 1866, 1865
1814, 1746, 1747, 1867, 1866
1815, 1747, 1748, 1868, 1867
1816, 1748, 1749, 1869, 1868
1817, 1749, 1750, 1870, 1869
1818, 1750, 1751, 1871, 1870
1819, 1751, 1752, 1872, 1871
1820, 1752, 1753, 1873, 1872
1821, 1753, 1754, 1874, 1873
1822, 1754, 1755, 1875, 1874
1823, 1755, 1756, 1876, 1875
1824, 1756, 1757, 1877, 1876
1825, 1757, 1758, 1878, 1877
1826, 1758, 1759, 1879, 1878
1827, 1759, 1760, 1880, 1879
1828, 1760, 1761, 1881, 1880
1829, 1761, 1762, 1882, 1881
1830, 1762, 1763, 1883, 1882
1831, 1763, 1764, 1884, 1883
1832, 1764, 1765, 1885, 1884
1833, 1765, 1766, 1886, 1885
1834, 1766, 1767, 1887, 1886
1835, 1767, 1768, 1888, 1887
1836, 1768, 1769, 1889, 1888
1837, 1769, 1770, 1890, 1889
1838, 1770, 1771, 1891, 1890
1839, 1771, 1772, 1892, 1891
1840, 1772, 1773, 1893, 1892
1841, 1773, 1774, 1894, 1893
1842, 1774, 1775, 1895, 1894
1843, 1775, 1776, 1896, 1895
1844, 1776, 1777, 1897, 1896
1845, 1777, 1778, 1898, 1897
1846, 1778, 1779, 1899, 1898
1847, 1779, 1780, 1900, 1899
1848, 1780, 1661, 1781, 1900
1849, 1781, 1782, 1902, 1901
1850, 1782, 1783, 1903, 1902
1851, 1783, 1784, 1904, 1903
1852, 1784, 1785, 1905, 1904
1853, 1785, 1786, 1906, 1905
1854, 1786, 1787, 1907, 1906
1855, 1787, 1788, 1908, 1907
1856, 1788, 1789, 1909, 1908
1857, 1789, 1790, 1910, 1909
1858, 1790, 1791, 1911, 1910
1859, 1791, 1792, 1912, 1911
1860, 1792, 1793, 1913, 1912
1861, 1793, 1794, 1914, 1913
1862, 1794, 1795, 1915, 1914
1863, 1795, 1796, 1916, 1915
1864, 1796, 1797, 1917, 1916
1865, 1797, 1798, 1918, 1917
1866, 1798, 1799, 1919, 1918
1867, 1799, 1800, 1920, 1919
1868, 1800, 1801, 1921, 1920
1869, 1801, 1802, 1922, 1921
1870, 1802, 1803, 1923, 1922
1871, 1803, 1804, 1924, 1923
1872, 1804, 1805, 1925, 1924
1873, 1805, 1806, 1926, 1925
1874, 1806, 1807, 1927, 1926
1875, 1807, 1808, 1928, 1927
1876, 1808, 1809, 1929, 1928
1877, 1809, 1810, 1930, 1929
1878, 1810, 1811, 1931, 1930
1879, 1811, 1812, 1932, 1931
1880, 1812, 1813, 1933, 1932
1881, 1813, 1814, 1934, 1933
1882, 1814, 1815, 1935, 1934
1883, 1815, 1816, 1936, 1935
1884, 1816, 1817, 1937, 1936
1885, 1817, 1818, 1938, 1937
1886, 1818, 1819, 1939, 1938
1887, 1819, 1820, 1940, 1939
1888, 1820, 1821, 1941, 1940
1889, 1821, 1822, 1942, 1941
1890, 1822, 1823, 1943, 1942
1891, 1823, 1824, 1944, 1943
1892, 1824, 1825, 1945, 1944
1893, 1825, 1826, 1946, 1945
1894, 1826, 1827, 1947, 1946
1895, 1827, 1828, 1948, 1947
1896, 1828, 1829, 1949, 1948
1897, 1829, 1830, 1950, 1949
1898, 1830, 1831, 1951, 1950
1899, 1831, 1832, 1952, 1951
1900, 1832, 1833, 1953, 1952
1901, 1833, 1834, 1954, 1953
1902, 1834, 1835, 1955, 1954
1903, 1835, 1836, 1956, 1955
1904, 1836, 1837, 1957, 1956
1905, 1837, 1838, 1958, 1957
1906, 1838, 1839, 1959, 1958
1907, 1839, 1840, 1960, 1959
1908, 1840, 1841, 1961, 1960
1909, 1841, 1842, 1962, 1961
1910, 1842, 1843, 1963, 1962
1911, 1843, 1844, 1964, 1963
1912, 1844, 1845, 1965, 1964
1913, 1845, 1846, 1966, 1965
1914, 1846, 1847, 1967, 1966
1915, 1847, 1848, 1968, 1967
1916, 1848, 1849, 1969, 1968
1917, 1849, 1850, 1970, 1969
1918, 1850, 1851, 1971, 1970
1919, 1851, 1852, 1972, 1971
1920, 1852, 1853, 1973, 1972
1921, 1853, 1854, 1974, 1973
1922, 1854, 1855, 1975, 1974
1923, 1855, 1856, 1976, 1975
1924, 1856, 1857, 1977, 1976
1925, 1857, 1858, 1978, 1977
1926, 1858, 1859, 1979, 1978
1927, 1859, 1860, 1980, 1979
1928, 1860, 1861, 1981, 1980
1929, 1861, 1862, 1982, 1981
1930, 1862, 1863, 1983, 1982
1931, 1863, 1864, 1984, 1983
1932, 1864, 1865, 1985, 1984
1933, 1865, 1866, 1986, 1985
1934, 1866, 1867, 1987, 1986
1935, 1867, 1868, 1988, 1987
1936, 1868, 1869, 1989, 1988
1937, 1869, 1870, 1990, 1989
1938, 1870, 1871, 1991, 1990
1939, 1871, 1872, 1992, 1991
1940, 1872, 1873, 1993, 1992
1941, 1873, 1874, 1994, 1993
1942, 1874, 1875, 1995, 1994
1943, 1875, 1876, 1996, 1995
1944, 1876, 1877, 1997, 1996
1945, 1877, 1878, 1998, 1997
1946, 1878, 1879, 1999, 1998
1947, 1879, 1880, 2000, 1999
1948, 1880, 1881, 2001, 2000
1949, 1881, 1882, 2002, 2001
1950, 1882, 1883, 2003, 2002
1951, 1883, 1884, 2004, 2003
1952, 1884, 1885, 2005, 2004
1953, 1885, 1886, 2006, 2005
1954, 1886, 1887, 2007, 2006
1955, 1887, 1888, 2008, 2007
1956, 1888, 1889, 2009, 2008
1957, 1889, 1890, 2010, 2009
1958, 1890, 1891, 2011, 2010
1959, 1891, 1892, 2012, 2011
1960, 1892, 1893, 2013, 2012
1961, 1893, 1894, 2014, 2013
1962, 1894, 1895, 2015, 2014
1963, 1895, 1896, 2016, 2015
1964, 1896, 1897, 2017, 2016
1965, 1897, 1898, 2018, 2017
1966, 1898, 1899, 2019, 2018
1967, 1899, 1900, 2020, 2019
1968, 1900, 1781, 1901, 2020
1969, 1901, 1902, 2022, 2021
1970, 1902, 1903, 2023, 2022
1971, 1903, 1904, 2024, 2023
1972, 1904, 1905, 2025, 2024
1973, 1905, 1906, 2026, 2025
1974, 1906, 1907, 2027, 2026
1975, 1907, 1908, 2028, 2027
1976, 1908, 1909, 2029, 2028
1977, 1909, 1910, 2030, 2029
1978, 1910, 1911, 2031, 2030
1979, 1911, 1912, 2032, 2031
1980, 1912, 1913, 2033, 2032
1981, 1913, 1914, 2034, 2033
1982, 1914, 1915, 2035, 2034
1983, 1915, 1916, 2036, 2035
1984, 1916, 1917, 2037, 2036
1985, 1917, 1918, 2038, 2037
1986, 1918, 1919, 2039, 2038
1987, 1919, 1920, 2040, 2039
1988, 1920, 1921, 2041, 2040
1989, 1921, 1922, 2042, 2041
1990, 1922, 1923, 2043, 2042
1991, 1923, 1924, 2044, 2043
1992, 1924, 1925, 2045, 2044
1993, 1925, 1926, 2046, 2045
1994, 1926, 1927, 2047, 2046
1995, 1927, 1928, 2048, 2047
1996, 1928, 1929, 2049, 2048
1997, 1929, 1930, 2050, 2049
1998, 1930, 1931, 2051, 2050
1999, 1931, 1932, 2052, 2051
2000, 1932, 1933, 2053, 2052
2001, 1933, 1934, 2054, 2053
2002, 1934, 1935, 2055, 2054
2003, 1935, 1936, 2056, 2055
2004, 1936, 1937, 2057, 2056
2005, 1937, 1938, 2058, 2057
2006, 1938, 1939, 2059, 2058
2007, 1939, 1940, 2060, 2059
2008, 1940, 1941, 2061, 2060
2009, 1941, 1942, 2062, 2061
2010, 1942, 1943, 2063, 2062
2011, 1943, 1944, 2064, 2063
2012, 1944, 1945, 2065, 2064
2013, 1945, 1946, 2066, 2065
2014, 1946, 1947, 2067, 2066
2015, 1947, 1948, 2068, 2067
2016, 1948, 1949, 2069, 2068
2017, 1949, 1950, 2070, 2069
2018, 1950, 1951, 2071, 2070
2019, 1951, 1952, 2072, 2071
2020, 1952, 1953, 2073, 2072
2021, 1953, 1954, 2074, 2073
2022, 1954, 1955, 2075, 2074
2023, 1955, 1956, 2076, 2075
2024, 1956, 1957, 2077, 2076
2025, 1957, 1958, 2078, 2077
2026, 1958, 1959, 2079, 2078
2027, 1959, 1960, 2080, 2079
2028, 1960, 1961, 2081, 2080
2029, 1961, 1962, 2082, 2081
2030, 1962, 1963, 2083, 2082
2031, 1963, 1964, 2084, 2083
2032, 1964, 1965, 2085, 2084
2033, 1965, 1966, 2086, 2085
2034, 1966, 1967, 2087, 2086
2035, 1967, 1968, 2088, 2087
2036, 1968, 1969, 2089, 2088
2037, 1969, 1970, 2090, 2089
2038, 1970, 1971, 2091, 2090
2039, 1971, 1972, 2092, 2091
2040, 1972, 1973, 2093, 2092
2041, 1973, 1974, 2094, 2093
2042, 1974, 1975, 2095, 2094
2043, 1975, 1976, 2096, 2095
2044, 1976, 1977, 2097, 2096
2045, 1977, 1978, 2098, 2097
2046, 1978, 1979, 2099, 2098
2047, 1979, 1980, 2100, 2099
2048, 1980, 1981, 2101, 2100
2049, 1981, 1982, 2102, 2101
2050, 1982, 1983, 2103, 2102
2051, 1983, 1984, 2104, 2103
2052, 1984, 1985, 2105, 2104
2053, 1985, 1986, 2106, 2105
2054, 1986, 1987, 2107, 2106
2055, 1987, 1988, 2108, 2107
2056, 1988, 1989, 2109, 2108
2057, 1989, 1990, 2110, 2109
2058, 1990, 1991, 2111, 2110
2059, 1991, 1992, 2112, 2111
2060, 1992, 1993, 2113, 2112
2061, 1993, 1994, 2114, 2113
2062, 1994, 1995, 2115, 2114
2063, 1995, 1996, 2116, 2115
2064, 1996, 1997, 2117, 2116
2065, 1997, 1998, 2118, 2117
2066, 1998, 1999, 2119, 2118
2067, 1999, 2000, 2120, 2119
2068, 2000, 2001, 2121, 2120
2069, 2001, 2002, 2122, 2121
2070, 2002, 2003, 2123, 2122
2071, 2003, 2004, 2124, 2123
2072, 2004, 2005, 2125, 2124
2073, 2005, 2006, 2126, 2125
2074, 2006, 2007, 2127, 2126
2075, 2007, 2008, 2128, 2127
2076, 2008, 2009, 2129, 2128
2077, 2009, 2010, 2130, 2129
2078, 2010, 2011, 2131, 2130
2079, 2011, 2012, 2132, 2131
2080, 2012, 2013, 2133, 2132
2081, 2013, 2014, 2134, 2133
2082, 2014, 2015, 2135, 2134
2083, 2015, 2016, 2136, 2135
2084, 2016, 2017, 2137, 2136
2085, 2017, 2018, 2138, 2137
2086, 2018, 2019, 2139, 2138
2087, 2019, 2020, 2140, 2139
2088, 2020, 1901, 2021, 2140
2089, 2021, 2022, 2142, 2141
2090, 2022, 2023, 2143, 2142
2091, 2023, 2024, 2144, 2143
2092, 2024, 2025, 2145, 2144
2093, 2025, 2026, 2146, 2145
2094, 2026, 2027, 2147, 2146
2095, 2027, 2028, 2148, 2147
2096, 2028, 2029, 2149, 2148
2097, 2029, 2030, 2150, 2149
2098, 2030, 2031, 2151, 2150
2099, 2031, 2032, 2152, 2151
2100, 2032, 2033, 2153, 2152
2101, 2033, 2034, 2154, 2153
2102, 2034, 2035, 2155, 2154
2103, 2035, 2036, 2156, 2155
2104, 2036, 2037, 2157, 2156
2105, 2037, 2038, 2158, 2157
2106, 2038, 2039, 2159, 2158
2107, 2039, 2040, 2160, 2159
2108, 2040, 2041, 2161, 2160
2109, 2041, 2042, 2162, 2161
2110, 2042, 2043, 2163, 2162
2111, 2043, 2044, 2164, 2163
2112, 2044, 2045, 2165, 2164
2113, 2045, 2046, 2166, 2165
2114, 2046, 2047, 2167, 2166
2115, 2047, 2048, 2168, 2167
2116, 2048, 2049, 2169, 2168
2117, 2049, 2050, 2170, 2169
2118, 2050, 2051, 2171, 2170
2119, 2051, 2052, 2172, 2171
2120, 2052, 2053, 2173, 2172
2121, 2053, 2054, 2174, 2173
2122, 2054, 2055, 2175, 2174
2123, 2055, 2056, 2176, 2175
2124, 2056, 2057, 2177, 2176
2125, 2057, 2058, 2178, 2177
2126, 2058, 2059, 2179, 2178
2127, 2059, 2060, 2180, 2179
2128, 2060, 2061, 2181, 2180
2129, 2061, 2062, 2182, 2181
2130, 2062, 2063, 2183, 2182
2131, 2063, 2064, 2184, 2183
2132, 2064, 2065, 2185, 2184
2133, 2065, 2066, 2186, 2185
2134, 2066, 2067, 2187, 2186
2135, 2067, 2068, 2188, 2187
2136, 2068, 2069, 2189, 2188
2137, 2069, 2070, 2190, 2189
2138, 2070, 2071, 2191, 2190
2139, 2071, 2072, 2192, 2191
2140, 2072, 2073, 2193, 2192
2141, 2073, 2074, 2194, 2193
2142, 2074, 2075, 2195, 2194
2143, 2075, 2076, 2196, 2195
2144, 2076, 2077, 2197, 2196
2145, 2077, 2078, 2198, 2197
2146, 2078, 2079, 2199, 2198
2147, 2079, 2080, 2200, 2199
2148, 2080, 2081, 2201, 2200
2149, 2081, 2082, 2202, 2201
2150, 2082, 2083, 2203, 2202
2151, 2083, 2084, 2204, 2203
2152, 2084, 2085, 2205, 2204
2153, 2085, 2086, 2206, 2205
2154, 2086, 2087, 2207, 2206
2155, 2087, 2088, 2208, 2207
2156, 2088, 2089, 2209, 2208
2157, 2089, 2090, 2210, 2209
2158, 2090, 2091, 2211, 2210
2159, 2091, 2092, 2212, 2211
2160, 2092, 2093, 2213, 2212
2161, 2093, 2094, 2214, 2213
2162, 2094, 2095, 2215, 2214
2163, 2095, 2096, 2216, 2215
2164, 2096, 2097, 2217, 2216
2165, 2097, 2098, 2218, 2217
2166, 2098, 2099, 2219, 2218
2167, 2099, 2100, 2220, 2219
2168, 2100, 2101, 2221, 2220
2169, 2101, 2102, 2222, 2221
2170, 2102, 2103, 2223, 2222
2171, 2103, 2104, 2224, 2223
2172, 2104, 2105, 2225, 2224
2173, 2105, 2106, 2226, 2225
2174, 2106, 2107, 2227, 2226
2175, 2107, 2108, 2228, 2227
2176, 2108, 2109, 2229, 2228
2177, 2109, 2110, 2230, 2229
2178, 2110, 2111, 2231, 2230
2179, 2111, 2112, 2232, 2231
2180, 2112, 2113, 2233, 2232
2181, 2113, 2114, 2234, 2233
2182, 2114, 2115, 2235, 2234
2183, 2115, 2116, 2236, 2235
2184, 2116, 2117, 2237, 2236
2185, 2117, 2118, 2238, 2237
2186, 2118, 2119, 2239, 2238
2187, 2119, 2120, 2240, 2239
2188, 2120, 2121, 2241, 2240
2189, 2121, 2122, 2242, 2241
2190, 2122, 2123, 2243, 2242
2191, 2123, 2124, 2244, 2243
2192, 2124, 2125, 2245, 2244
2193, 2125, 2126, 2246, 2245
2194, 2126, 2127, 2247, 2246
2195, 2127, 2128, 2248, 2247
2196, 2128, 2129, 2249, 2248
2197, 2129, 2130, 2250, 2249
2198, 2130, 2131, 2251, 2250
2199, 2131, 2132, 2252, 2251
2200, 2132, 2133, 2253, 2252
2201, 2133, 2134, 2254, 2253
2202, 2134, 2135, 2255, 2254
2203, 2135, 2136, 2256, 2255
2204, 2136, 2137, 2257, 2256
2205, 2137, 2138, 2258, 2257
2206, 2138, 2139, 2259, 2258
2207, 2139, 2140, 2260, 2259
2208, 2140, 2021, 2141, 2260
2209, 2141, 2142, 2262, 2261
2210, 2142, 2143, 2263, 2262
2211, 2143, 2144, 2264, 2263
2212, 2144, 2145, 2265, 2264
2213, 2145, 2146, 2266, 2265
2214, 2146, 2147, 2267, 2266
2215, 2147, 2148, 2268, 2267
2216, 2148, 2149, 2269, 2268
2217, 2149, 2150, 2270, 2269
2218, 2150, 2151, 2271, 2270
2219, 2151, 2152, 2272, 2271
2220, 2152, 2153, 2273, 2272
2221, 2153, 2154, 2274, 2273
2222, 2154, 2155, 2275, 2274
2223, 2155, 2156, 2276, 2275
2224, 2156, 2157, 2277, 2276
2225, 2157, 2158, 2278, 2277
2226, 2158, 2159, 2279, 2278
2227, 2159, 2160, 2280, 2279
2228, 2160, 2161, 2281, 2280
2229, 2161, 2162, 2282, 2281
2230, 2162, 2163, 2283, 2282
2231, 2163, 2164, 2284, 2283
2232, 2164, 2165, 2285, 2284
2233, 2165, 2166, 2286, 2285
2234, 2166, 2167, 2287, 2286
2235, 2167, 2168, 2288, 2287
2236, 2168, 2169, 2289, 2288
2237, 2169, 2170, 2290, 2289
2238, 2170, 2171, 2291, 2290
2239, 2171, 2172, 2292, 2291
2240, 2172, 2173, 2293, 2292
2241, 2173, 2174, 2294, 2293
2242, 2174, 2175, 2295, 2294
2243, 2175, 2176, 2296, 2295
2244, 2176, 2177, 2297, 2296
2245, 2177, 2178, 2298, 2297
2246, 2178, 2179, 2299, 2298
2247, 2179, 2180, 2300, 2299
2248, 2180, 2181, 2301, 2300
2249, 2181, 2182, 2302, 2301
2250, 2182, 2183, 2303, 2302
2251, 2183, 2184, 2304, 2303
2252, 2184, 2185, 2305, 2304
2253, 2185, 2186, 2306, 2305
2254, 2186, 2187, 2307, 2306
2255, 2187, 2188, 2308, 2307
2256, 2188, 2189, 2309, 2308
2257, 2189, 2190, 2310, 2309
2258, 2190, 2191, 2311, 2310
2259, 2191, 2192, 2312, 2311
2260, 2192, 2193, 2313, 2312
2261, 2193, 2194, 2314, 2313
2262, 2194, 2195, 2315, 2314
2263, 2195, 2196, 2316, 2315
2264, 2196, 2197, 2317, 2316
2265, 2197, 2198, 2318, 2317
2266, 2198, 2199, 2319, 2318
2267, 2199, 2200, 2320, 2319
2268, 2200, 2201, 2321, 2320
2269, 2201, 2202, 2322, 2321
2270, 2202, 2203, 2323, 2322
2271, 2203, 2204, 2324, 2323
2272, 2204, 2205, 2325, 2324
2273, 2205, 2206, 2326, 2325
2274, 2206, 2207, 2327, 2326
2275, 2207, 2208, 2328, 2327
2276, 2208, 2209, 2329, 2328
2277, 2209, 2210, 2330, 2329
2278, 2210, 2211, 2331, 2330
2279, 2211, 2212, 2332, 2331
2280, 2212, 2213, 2333, 2332
2281, 2213, 2214, 2334, 2333
2282, 2214, 2215, 2335, 2334
2283, 2215, 2216, 2336, 2335
2284, 2216, 2217, 2337, 2336
2285, 2217, 2218, 2338, 2337
2286, 2218, 2219, 2339, 2338
2287, 2219, 2220, 2340, 2339
2288, 2220, 2221, 2341, 2340
2289, 2221, 2222, 2342, 2341
2290, 2222, 2223, 2343, 2342
2291, 2223, 2224, 2344, 2343
2292, 2224, 2225, 2345, 2344
2293, 2225, 2226, 2346, 2345
2294, 2226, 2227, 2347, 2346
2295, 2227, 2228, 2348, 2347
2296, 2228, 2229, 2349, 2348
2297, 2229, 2230, 2350, 2349
2298, 2230, 2231, 2351, 2350
2299, 2231, 2232, 2352, 2351
2300, 2232, 2233, 2353, 2352
2301, 2233, 2234, 2354, 2353
2302, 2234, 2235, 2355, 2354
2303, 2235, 2236, 2356, 2355
2304, 2236, 2237, 2357, 2356
2305, 2237, 2238, 2358, 2357
2306, 2238, 2239, 2359, 2358
2307, 2239, 2240, 2360, 2359
2308, 2240, 2241, 2361, 2360
2309, 2241, 2242, 2362, 2361
2310, 2242, 2243, 2363, 2362
2311, 2243, 2244, 2364, 2363
2312, 2244, 2245, 2365, 2364
2313, 2245, 2246, 2366, 2365
2314, 2246, 2247, 2367, 2366
2315, 2247, 2248, 2368, 2367
2316, 2248, 2249, 2369, 2368
2317, 2249, 2250, 2370, 2369
2318, 2250, 2251, 2371, 2370
2319, 2251, 2252, 2372, 2371
2320, 2252, 2253, 2373, 2372
2321, 2253, 2254, 2374, 2373
2322, 2254, 2255, 2375, 2374
2323, 2255, 2256, 2376, 2375
2324, 2256, 2257, 2377, 2376
2325, 2257, 2258, 2378, 2377
2326, 2258, 2259, 2379, 2378
2327, 2259, 2260, 2380, 2379
2328, 2260, 2141, 2261, 2380
2329, 2261, 2262, 2382, 2381
2330, 2262, 2263, 2383, 2382
2331, 2263, 2264, 2384, 2383
2332, 2264, 2265, 2385, 2384
2333, 2265, 2266, 2386, 2385
2334, 2266, 2267, 2387, 2386
2335, 2267, 2268, 2388, 2387
2336, 2268, 2269, 2389, 2388
2337, 2269, 2270, 2390, 2389
2338, 2270, 2271, 2391, 2390
2339, 2271, 2272, 2392, 2391
2340, 2272, 2273, 2393, 2392
2341, 2273, 2274, 2394, 2393
2342, 2274, 2275, 2395, 2394
2343, 2275, 2276, 2396, 2395
2344, 2276, 2277, 2397, 2396
2345, 2277, 2278, 2398, 2397
2346, 2278, 2279, 2399, 2398
2347, 2279, 2280, 2400, 2399
2348, 2280, 2281, 2401, 2400
2349, 2281, 2282, 2402, 2401
2350, 2282, 2283, 2403, 2402
2351, 2283, 2284, 2404, 2403
2352, 2284, 2285, 2405, 2404
2353, 2285, 2286, 2406, 2405
2354, 2286, 2287, 2407, 2406
2355, 2287, 2288, 2408, 2407
2356, 2288, 2289, 2409, 2408
2357, 2289, 2290, 2410, 2409
2358, 2290, 2291, 2411, 2410
2359, 2291, 2292, 2412, 2411
2360, 2292, 2293, 2413, 2412
2361, 2293, 2294, 2414, 2413
2362, 2294, 2295, 2415, 2414
2363, 2295, 2296, 2416, 2415
2364, 2296, 2297, 2417, 2416
2365, 2297, 2298, 2418, 2417
2366, 2298, 2299, 2419, 2418
2367, 2299, 2300, 2420, 2419
2368, 2300, 2301, 2421, 2420
2369, 2301, 2302, 2422, 2421
2370, 2302, 2303, 2423, 2422
2371, 2303, 2304, 2424, 2423
2372, 2304, 2305, 2425, 2424
2373, 2305, 2306, 2426, 2425
2374, 2306, 2307, 2427, 2426
2375, 2307, 2308, 2428, 2427
2376, 2308, 2309, 2429, 2428
2377, 2309, 2310, 2430, 2429
2378, 2310, 2311, 2431, 2430
2379, 2311, 2312, 2432, 2431
2380, 2312, 2313, 2433, 2432
2381, 2313, 2314, 2434, 2433
2382, 2314, 2315, 2435, 2434
2383, 2315, 2316, 2436, 2435
2384, 2316, 2317, 2437, 2436
2385, 2317, 2318, 2438, 2437
2386, 2318, 2319, 2439, 2438
2387, 2319, 2320, 2440, 2439
2388, 2320, 2321, 2441, 2440
2389, 2321, 2322, 2442, 2441
2390, 2322, 2323, 2443, 2442
2391, 2323, 2324, 2444, 2443
2392, 2324, 2325, 2445, 2444
2393, 2325, 2326, 2446, 2445
2394, 2326, 2327, 2447, 2446
2395, 2327, 2328, 2448, 2447
2396, 2328, 2329, 2449, 2448
2397, 2329, 2330, 2450, 2449
2398, 2330, 2331, 2451, 2450
2399, 2331, 2332, 2452, 2451
2400, 2332, 2333, 2453, 2452
2401, 2333, 2334, 2454, 2453
2402, 2334, 2335, 2455, 2454
2403, 2335, 2336, 2456, 2455
2404, 2336, 2337, 2457, 2456
2405, 2337, 2338, 2458, 2457
2406, 2338, 2339, 2459, 2458
2407, 2339, 2340, 2460, 2459
2408, 2340, 2341, 2461, 2460
2409, 2341, 2342, 2462, 2461
2410, 2342, 2343, 2463, 2462
2411, 2343, 2344, 2464, 2463
2412, 2344, 2345, 2465, 2464
2413, 2345, 2346, 2466, 2465
2414, 2346, 2347, 2467, 2466
2415, 2347, 2348, 2468, 2467
2416, 2348, 2349, 2469, 2468
2417, 2349, 2350, 2470, 2469
2418, 2350, 2351, 2471, 2470
2419, 2351, 2352, 2472, 2471
2420, 2352, 2353, 2473, 2472
2421, 2353, 2354, 2474, 2473
2422, 2354, 2355, 2475, 2474
2423, 2355, 2356, 2476, 2475
2424, 2356, 2357, 2477, 2476
2425, 2357, 2358, 2478, 2477
2426, 2358, 2359, 2479, 2478
2427, 2359, 2360, 2480, 2479
2428, 2360, 2361, 2481, 2480
2429, 2361, 2362, 2482, 2481
2430, 2362, 2363, 2483, 2482
2431, 2363, 2364, 2484, 2483
2432, 2364, 2365, 2485, 2484
2433, 2365, 2366, 2486, 2485
2434, 2366, 2367, 2487, 2486
2435, 2367, 2368, 2488, 2487
2436, 2368, 2369, 2489, 2488
2437, 2369, 2370, 2490, 2489
2438, 2370, 2371, 2491, 2490
2439, 2371, 2372, 2492, 2491
2440, 2372, 2373, 2493, 2492
2441, 2373, 2374, 2494, 2493
2442, 2374, 2375, 2495, 2494
2443, 2375, 2376, 2496, 2495
2444, 2376, 2377, 2497, 2496
2445, 2377, 2378, 2498, 2497
2446, 2378, 2379, 2499, 2498
2447, 2379, 2380, 2500, 2499
2448, 2380, 2261, 2381, 2500
2449, 2381, 2382, 2502, 2501
2450, 2382, 2383, 2503, 2502
2451, 2383, 2384, 2504, 2503
2452, 2384, 2385, 2505, 2504
2453, 2385, 2386, 2506, 2505
2454, 2386, 2387, 2507, 2506
2455, 2387, 2388, 2508, 2507
2456, 2388, 2389, 2509, 2508
2457, 2389, 2390, 2510, 2509
2458, 2390, 2391, 2511, 2510
2459, 2391, 2392, 2512, 2511
2460, 2392, 2393, 2513, 2512
2461, 2393, 2394, 2514, 2513
2462, 2394, 2395, 2515, 2514
2463, 2395, 2396, 2516, 2515
2464, 2396, 2397, 2517, 2516
2465, 2397, 2398, 2518, 2517
2466, 2398, 2399, 2519, 2518
2467, 2399, 2400, 2520, 2519
2468, 2400, 2401, 2521, 2520
2469, 2401, 2402, 2522, 2521
2470, 2402, 2403, 2523, 2522
2471, 2403, 2404, 2524, 2523
2472, 2404, 2405, 2525, 2524
2473, 2405, 2406, 2526, 2525
2474, 2406, 2407, 2527, 2526
2475, 2407, 2408, 2528, 2527
2476, 2408, 2409, 2529, 2528
2477, 2409, 2410, 2530, 2529
2478, 2410, 2411, 2531, 2530
2479, 2411, 2412, 2532, 2531
2480, 2412, 2413, 2533, 2532
2481, 2413, 2414, 2534, 2533
2482, 2414, 2415, 2535, 2534
2483, 2415, 2416, 2536, 2535
2484, 2416, 2417, 2537, 2536
2485, 2417, 2418, 2538, 2537
2486, 2418, 2419, 2539, 2538
2487, 2419, 2420, 2540, 2539
2488, 2420, 2421, 2541, 2540
2489, 2421, 2422, 2542, 2541
2490, 2422, 2423, 2543, 2542
2491, 2423, 2424, 2544, 2543
2492, 2424, 2425, 2545, 2544
2493, 2425, 2426, 2546, 2545
2494, 2426, 2427, 2547, 2546
2495, 2427, 2428, 2548, 2547
2496, 2428, 2429, 2549, 2548
2497, 2429, 2430, 2550, 2549
2498, 2430, 2431, 2551, 2550
2499, 2431, 2432, 2552, 2551
2500, 2432, 2433, 2553, 2552
2501, 2433, 2434, 2554, 2553
2502, 2434, 2435, 2555, 2554
2503, 2435, 2436, 2556, 2555
2504, 2436, 2437, 2557, 2556
2505, 2437, 2438, 2558, 2557
2506, 2438, 2439, 2559, 2558
2507, 2439, 2440, 2560, 2559
2508, 2440, 2441, 2561, 2560
2509, 2441, 2442, 2562, 2561
2510, 2442, 2443, 2563, 2562
2511, 2443, 2444, 2564, 2563
2512, 2444, 2445, 2565, 2564
2513, 2445, 2446, 2566, 2565
2514, 2446, 2447, 2567, 2566
2515, 2447, 2448, 2568, 2567
2516, 2448, 2449, 2569, 2568
2517, 2449, 2450, 2570, 2569
2518, 2450, 2451, 2571, 2570
2519, 2451, 2452, 2572, 2571
2520, 2452, 2453, 2573, 2572
2521, 2453, 2454, 2574, 2573
2522, 2454, 2455, 2575, 2574
2523, 2455, 2456, 2576, 2575
2524, 2456, 2457, 2577, 2576
2525, 2457, 2458, 2578, 2577
2526, 2458, 2459, 2579, 2578
2527, 2459, 2460, 2580, 2579
2528, 2460, 2461, 2581, 2580
2529, 2461, 2462, 2582, 2581
2530, 2462, 2463, 2583, 2582
2531, 2463, 2464, 2584, 2583
2532, 2464, 2465, 2585, 2584
2533, 2465, 2466, 2586, 2585
2534, 2466, 2467, 2587, 2586
2535, 2467, 2468, 2588, 2587
2536, 2468, 2469, 2589, 2588
2537, 2469, 2470, 2590, 2589
2538, 2470, 2471, 2591, 2590
2539, 2471, 2472, 2592, 2591
2540, 2472, 2473, 2593, 2592
2541, 2473, 2474, 2594, 2593
2542, 2474, 2475, 2595, 2594
2543, 2475, 2476, 2596, 2595
2544, 2476, 2477, 2597, 2596
2545, 2477, 2478, 2598, 2597
2546, 2478, 2479, 2599, 2598
2547, 2479, 2480, 2600, 2599
2548, 2480, 2481, 2601, 2600
2549, 2481, 2482, 2602, 2601
2550, 2482, 2483, 2603, 2602
2551, 2483, 2484, 2604, 2603
2552, 2484, 2485, 2605, 2604
2553, 2485, 2486, 2606, 2605
2554, 2486, 2487, 2607, 2606
2555, 2487, 2488, 2608, 2607
2556, 2488, 2489, 2609, 2608
2557, 2489, 2490, 2610, 2609
2558, 2490, 2491, 2611, 2610
2559, 2491, 2492, 2612, 2611
2560, 2492, 2493, 2613, 2612
2561, 2493, 2494, 2614, 2613
2562, 2494, 2495, 2615, 2614
2563, 2495, 2496, 2616, 2615
2564, 2496, 2497, 2617, 2616
2565, 2497, 2498, 2618, 2617
2566, 2498, 2499, 2619, 2618
2567, 2499, 2500, 2620, 2619
2568, 2500, 2381, 2501, 2620
2569, 2501, 2502, 2622, 2621
2570, 2502, 2503, 2623, 2622
2571, 2503, 2504, 2624, 2623
2572, 2504, 2505, 2625, 2624
2573, 2505, 2506, 2626, 2625
2574, 2506, 2507, 2627, 2626
2575, 2507, 2508, 2628, 2627
2576, 2508, 2509, 2629, 2628
2577, 2509, 2510, 2630, 2629
2578, 2510, 2511, 2631, 2630
2579, 2511, 2512, 2632, 2631
2580, 2512, 2513, 2633, 2632
2581, 2513, 2514, 2634, 2633
2582, 2514, 2515, 2635, 2634
2583, 2515, 2516, 2636, 2635
2584, 2516, 2517, 2637, 2636
2585, 2517, 2518, 2638, 2637
2586, 2518, 2519, 2639, 2638
2587, 2519, 2520, 2640, 2639
2588, 2520, 2521, 2641, 2640
2589, 2521, 2522, 2642, 2641
2590, 2522, 2523, 2643, 2642
2591, 2523, 2524, 2644, 2643
2592, 2524, 2525, 2645, 2644
2593, 2525, 2526, 2646, 2645
2594, 2526, 2527, 2647, 2646
2595, 2527, 2528, 2648, 2647
2596, 2528, 2529, 2649, 2648
2597, 2529, 2530, 2650, 2649
2598, 2530, 2531, 2651, 2650
2599, 2531, 2532, 2652, 2651
2600, 2532, 2533, 2653, 2652
2601, 2533, 2534, 2654, 2653
2602, 2534, 2535, 2655, 2654
2603, 2535, 2536, 2656, 2655
2604, 2536, 2537, 2657, 2656
2605, 2537, 2538, 2658, 2657
2606, 2538, 2539, 2659, 2658
2607, 2539, 2540, 2660, 2659
2608, 2540, 2541, 2661, 2660
2609, 2541, 2542, 2662, 2661
2610, 2542, 2543, 2663, 2662
2611, 2543, 2544, 2664, 2663
2612, 2544, 2545, 2665, 2664
2613, 2545, 2546, 2666, 2665
2614, 2546, 2547, 2667, 2666
2615, 2547, 2548, 2668, 2667
2616, 2548, 2549, 2669, 2668
2617, 2549, 2550, 2670, 2669
2618, 2550, 2551, 2671, 2670
2619, 2551, 2552, 2672, 2671
2620, 2552, 2553, 2673, 2672
2621, 2553, 2554, 2674, 2673
2622, 2554, 2555, 2675, 2674
2623, 2555, 2556, 2676, 2675
2624, 2556, 2557, 2677, 2676
2625, 2557, 2558, 2678, 2677
2626, 2558, 2559, 2679, 2678
2627, 2559, 2560, 2680, 2679
2628, 2560, 2561, 2681, 2680
2629, 2561, 2562, 2682, 2681
2630, 2562, 2563, 2683, 2682
2631, 2563, 2564, 2684, 2683
2632, 2564, 2565, 2685, 2684
2633, 2565, 2566, 2686, 2685
2634, 2566, 2567, 2687, 2686
2635, 2567, 2568, 2688, 2687
2636, 2568, 2569, 2689, 2688
2637, 2569, 2570, 2690, 2689
2638, 2570, 2571, 2691, 2690
2639, 2571, 2572, 2692, 2691
2640, 2572, 2573, 2693, 2692
2641, 2573, 2574, 2694, 2693
2642, 2574, 2575, 2695, 2694
2643, 2575, 2576, 2696, 2695
2644, 2576, 2577, 2697, 2696
2645, 2577, 2578, 2698, 2697
2646, 2578, 2579, 2699, 2698
2647, 2579, 2580, 2700, 2699
2648, 2580, 2581, 2701, 2700
2649, 2581, 2582, 2702, 2701
2650, 2582, 2583, 2703, 2702
2651, 2583, 2584, 2704, 2703
2652, 2584, 2585, 2705, 2704
2653, 2585, 2586, 2706, 2705
2654, 2586, 2587, 2707, 2706
2655, 2587, 2588, 2708, 2707
2656, 2588, 2589, 2709, 2708
2657, 2589, 2590, 2710, 2709
2658, 2590, 2591, 2711, 2710
2659, 2591, 2592, 2712, 2711
2660, 2592, 2593, 2713, 2712
2661, 2593, 2594, 2714, 2713
2662, 2594, 2595, 2715, 2714
2663, 2595, 2596, 2716, 2715
2664, 2596, 2597, 2717, 2716
2665, 2597, 2598, 2718, 2717
2666, 2598, 2599, 2719, 2718
2667, 2599, 2600, 2720, 2719
2668, 2600, 2601, 2721, 2720
2669, 2601, 2602, 2722, 2721
2670, 2602, 2603, 2723, 2722
2671, 2603, 2604, 2724, 2723
2672, 2604, 2605, 2725, 2724
2673, 2605, 2606, 2726, 2725
2674, 2606, 2607, 2727, 2726
2675, 2607, 2608, 2728, 2727
2676, 2608, 2609, 2729, 2728
2677, 2609, 2610, 2730, 2729
2678, 2610, 2611, 2731, 2730
2679, 2611, 2612, 2732, 2731
2680, 2612, 2613, 2733, 2732
2681, 2613, 2614, 2734, 2733
2682, 2614, 2615, 2735, 2734
2683, 2615, 2616, 2736, 2735
2684, 2616, 2617, 2737, 2736
2685, 2617, 2618, 2738, 2737
2686, 2618, 2619, 2739, 2738
2687, 2619, 2620, 2740, 2739
2688, 2620, 2501, 2621, 2740
2689, 2621, 2622, 2742, 2741
2690, 2622, 2623, 2743, 2742
2691, 2623, 2624, 2744, 2743
2692, 2624, 2625, 2745, 2744
2693, 2625, 2626, 2746, 2745
2694, 2626, 2627, 2747, 2746
2695, 2627, 2628, 2748, 2747
2696, 2628, 2629, 2749, 2748
2697, 2629, 2630, 2750, 2749
2698, 2630, 2631, 2751, 2750
2699, 2631, 2632, 2752, 2751
2700, 2632, 2633, 2753, 2752
2701, 2633, 2634, 2754, 2753
2702, 2634, 2635, 2755, 2754
2703, 2635, 2636, 2756, 2755
2704, 2636, 2637, 2757, 2756
2705, 2637, 2638, 2758, 2757
2706, 2638, 2639, 2759, 2758
2707, 2639, 2640, 2760, 2759
2708, 2640, 2641, 2761, 2760
2709, 2641, 2642, 2762, 2761
2710, 2642, 2643, 2763, 2762
2711, 2643, 2644, 2764, 2763
2712, 2644, 2645, 2765, 2764
2713, 2645, 2646, 2766, 2765
2714, 2646, 2647, 2767, 2766
2715, 2647, 2648, 2768, 2767
2716, 2648, 2649, 2769, 2768
2717, 2649, 2650, 2770, 2769
2718, 2650, 2651, 2771, 2770
2719, 2651, 2652, 2772, 2771
2720, 2652, 2653, 2773, 2772
2721, 2653, 2654, 2774, 2773
2722, 2654, 2655, 2775, 2774
2723, 2655, 2656, 2776, 2775
2724, 2656, 2657, 2777, 2776
2725, 2657, 2658, 2778, 2777
2726, 2658, 2659, 2779, 2778
2727, 2659, 2660, 2780, 2779
2728, 2660, 2661, 2781, 2780
2729, 2661, 2662, 2782, 2781
2730, 2662, 2663, 2783, 2782
2731, 2663, 2664, 2784, 2783
2732, 2664, 2665, 2785, 2784
2733, 2665, 2666, 2786, 2785
2734, 2666, 2667, 2787, 2786
2735, 2667, 2668, 2788, 2787
2736, 2668, 2669, 2789, 2788
2737, 2669, 2670, 2790, 2789
2738, 2670, 2671, 2791, 2790
2739, 2671, 2672, 2792, 2791
2740, 2672, 2673, 2793, 2792
2741, 2673, 2674, 2794, 2793
2742, 2674, 2675, 2795, 2794
2743, 2675, 2676, 2796, 2795
2744, 2676, 2677, 2797, 2796
2745, 2677, 2678, 2798, 2797
2746, 2678, 2679, 2799, 2798
2747, 2679, 2680, 2800, 2799
2748, 2680, 2681, 2801, 2800
2749, 2681, 2682, 2802, 2801
2750, 2682, 2683, 2803, 2802
2751, 2683, 2684, 2804, 2803
2752, 2684, 2685, 2805, 2804
2753, 2685, 2686, 2806, 2805
2754, 2686, 2687, 2807, 2806
2755, 2687, 2688, 2808, 2807
2756, 2688, 2689, 2809, 2808
2757, 2689, 2690, 2810, 2809
2758, 2690, 2691, 2811, 2810
2759, 2691, 2692, 2812, 2811
2760, 2692, 2693, 2813, 2812
2761, 2693, 2694, 2814, 2813
2762, 2694, 2695, 2815, 2814
2763, 2695, 2696, 2816, 2815
2764, 2696, 2697, 2817, 2816
2765, 2697, 2698, 2818, 2817
2766, 2698, 2699, 2819, 2818
2767, 2699, 2700, 2820, 2819
2768, 2700, 2701, 2821, 2820
2769, 2701, 2702, 2822, 2821
2770, 2702, 2703, 2823, 2822
2771, 2703, 2704, 2824, 2823
2772, 2704, 2705, 2825, 2824
2773, 2705, 2706, 2826, 2825
2774, 2706, 2707, 2827, 2826
2775, 2707, 2708, 2828, 2827
2776, 2708, 2709, 2829, 2828
2777, 2709, 2710, 2830, 2829
2778, 2710, 2711, 2831, 2830
2779, 2711, 2712, 2832, 2831
2780, 2712, 2713, 2833, 2832
2781, 2713, 2714, 2834, 2833
2782, 2714, 2715, 2835, 2834
2783, 2715, 2716, 2836, 2835
2784, 2716, 2717, 2837, 2836
2785, 2717, 2718, 2838, 2837
2786, 2718, 2719, 2839, 2838
2787, 2719, 2720, 2840, 2839
2788, 2720, 2721, 2841, 2840
2789, 2721, 2722, 2842, 2841
2790, 2722, 2723, 2843, 2842
2791, 2723, 2724, 2844, 2843
2792, 2724, 2725, 2845, 2844
2793, 2725, 2726, 2846, 2845
2794, 2726, 2727, 2847, 2846
2795, 2727, 2728, 2848, 2847
2796, 2728, 2729, 2849, 2848
2797, 2729, 2730, 2850, 2849
2798, 2730, 2731, 2851, 2850
2799, 2731, 2732, 2852, 2851
2800, 2732, 2733, 2853, 2852
2801, 2733, 2734, 2854, 2853
2802, 2734, 2735, 2855, 2854
2803, 2735, 2736, 2856, 2855
2804, 2736, 2737, 2857, 2856
2805, 2737, 2738, 2858, 2857
2806, 2738, 2739, 2859, 2858
2807, 2739, 2740, 2860, 2859
2808, 2740, 2621, 2741, 2860
2809, 2741, 2742, 2862, 2861
2810, 2742, 2743, 2863, 2862
2811, 2743, 2744, 2864, 2863
2812, 2744, 2745, 2865, 2864
2813, 2745, 2746, 2866, 2865
2814, 2746, 2747, 2867, 2866
2815, 2747, 2748, 2868, 2867
2816, 2748, 2749, 2869, 2868
2817, 2749, 2750, 2870, 2869
2818, 2750, 2751, 2871, 2870
2819, 2751, 2752, 2872, 2871
2820, 2752, 2753, 2873, 2872
2821, 2753, 2754, 2874, 2873
2822, 2754, 2755, 2875, 2874
2823, 2755, 2756, 2876, 2875
2824, 2756, 2757, 2877, 2876
2825, 2757, 2758, 2878, 2877
2826, 2758, 2759, 2879, 2878
2827, 2759, 2760, 2880, 2879
2828, 2760, 2761, 2881, 2880
2829, 2761, 2762, 2882, 2881
2830, 2762, 2763, 2883, 2882
2831, 2763, 2764, 2884, 2883
2832, 2764, 2765, 2885, 2884
2833, 2765, 2766, 2886, 2885
2834, 2766, 2767, 2887, 2886
2835, 2767, 2768, 2888, 2887
2836, 2768, 2769, 2889, 2888
2837, 2769, 2770, 2890, 2889
2838, 2770, 2771, 2891, 2890
2839, 2771, 2772, 2892, 2891
2840, 2772, 2773, 2893, 2892
2841, 2773, 2774, 2894, 2893
2842, 2774, 2775, 2895, 2894
2843, 2775, 2776, 2896, 2895
2844, 2776, 2777, 2897, 2896
2845, 2777, 2778, 2898, 2897
2846, 2778, 2779, 2899, 2898
2847, 2779, 2780, 2900, 2899
2848, 2780, 2781, 2901, 2900
2849, 2781, 2782, 2902, 2901
2850, 2782, 2783, 2903, 2902
2851, 2783, 2784, 2904, 2903
2852, 2784, 2785, 2905, 2904
2853, 2785, 2786, 2906, 2905
2854, 2786, 2787, 2907, 2906
2855, 2787, 2788, 2908, 2907
2856, 2788, 2789, 2909, 2908
2857, 2789, 2790, 2910, 2909
2858, 2790, 2791, 2911, 2910
2859, 2791, 2792, 2912, 2911
2860, 2792, 2793, 2913, 2912
2861, 2793, 2794, 2914, 2913
2862, 2794, 2795, 2915, 2914
2863, 2795, 2796, 2916, 2915
2864, 2796, 2797, 2917, 2916
2865, 2797, 2798, 2918, 2917
2866, 2798, 2799, 2919, 2918
2867, 2799, 2800, 2920, 2919
2868, 2800, 2801, 2921, 2920
2869, 2801, 2802, 2922, 2921
2870, 2802, 2803, 2923, 2922
2871, 2803, 2804, 2924, 2923
2872, 2804, 2805, 2925, 2924
2873, 2805, 2806, 2926, 2925
2874, 2806, 2807, 2927, 2926
2875, 2807, 2808, 2928, 2927
2876, 2808, 2809, 2929, 2928
2877, 2809, 2810, 2930, 2929
2878, 2810, 2811, 2931, 2930
2879, 2811, 2812, 2932, 2931
2880, 2812, 2813, 2933, 2932
2881, 2813, 2814, 2934, 2933
2882, 2814, 2815, 2935, 2934
2883, 2815, 2816, 2936, 2935
2884, 2816, 2817, 2937, 2936
2885, 2817, 2818, 2938, 2937
2886, 2818, 2819, 2939, 2938
2887, 2819, 2820, 2940, 2939
2888, 2820, 2821, 2941, 2940
2889, 2821, 2822, 2942, 2941
2890, 2822, 2823, 2943, 2942
2891, 2823, 2824, 2944, 2943
2892, 2824, 2825, 2945, 2944
2893, 2825, 2826, 2946, 2945
2894, 2826, 2827, 2947, 2946
2895, 2827, 2828, 2948, 2947
2896, 2828, 2829, 2949, 2948
2897, 2829, 2830, 2950, 2949
2898, 2830, 2831, 2951, 2950
2899, 2831, 2832, 2952, 2951
2900, 2832, 2833, 2953, 2952
2901, 2833, 2834, 2954, 2953
2902, 2834, 2835, 2955, 2954
2903, 2835, 2836, 2956, 2955
2904, 2836, 2837, 2957, 2956
2905, 2837, 2838, 2958, 2957
2906, 2838, 2839, 2959, 2958
2907, 2839, 2840, 2960, 2959
2908, 2840, 2841, 2961, 2960
2909, 2841, 2842, 2962, 2961
2910, 2842, 2843, 2963, 2962
2911, 2843, 2844, 2964, 2963
2912, 2844, 2845, 2965, 2964
2913, 2845, 2846, 2966, 2965
2914, 2846, 2847, 2967, 2966
2915, 2847, 2848, 2968, 2967
2916, 2848, 2849, 2969, 2968
2917, 2849, 2850, 2970, 2969
2918, 2850, 2851, 2971, 2970
2919, 2851, 2852, 2972, 2971
2920, 2852, 2853, 2973, 2972
2921, 2853, 2854, 2974, 2973
2922, 2854, 2855, 2975, 2974
2923, 2855, 2856, 2976, 2975
2924, 2856, 2857, 2977, 2976
2925, 2857, 2858, 2978, 2977
2926, 2858, 2859, 2979, 2978
2927, 2859, 2860, 2980, 2979
2928, 2860, 2741, 2861, 2980
2929, 2861, 2862, 2982, 2981
2930, 2862, 2863, 2983, 2982
2931, 2863, 2864, 2984, 2983
2932, 2864, 2865, 2985, 2984
2933, 2865, 2866, 2986, 2985
2934, 2866, 2867, 2987, 2986
2935, 2867, 2868, 2988, 2987
2936, 2868, 2869, 2989, 2988
2937, 2869, 2870, 2990, 2989
2938, 2870, 2871, 2991, 2990
2939, 2871, 2872, 2992, 2991
2940, 2872, 2873, 2993, 2992
2941, 2873, 2874, 2994, 2993
2942, 2874, 2875, 2995, 2994
2943, 2875, 2876, 2996, 2995
2944, 2876, 2877, 2997, 2996
2945, 2877, 2878, 2998, 2997
2946, 2878, 2879, 2999, 2998
2947, 2879, 2880, 3000, 2999
2948, 2880, 2881, 3001, 3000
2949, 2881, 2882, 3002, 3001
2950, 2882, 2883, 3003, 3002
2951, 2883, 2884, 3004, 3003
2952, 2884, 2885, 3005, 3004
2953, 2885, 2886, 3006, 3005
2954, 2886, 2887, 3007, 3006
2955, 2887, 2888, 3008, 3007
2956, 2888, 2889, 3009, 3008
2957, 2889, 2890, 3010, 3009
2958, 2890, 2891, 3011, 3010
2959, 2891, 2892, 3012, 3011
2960, 2892, 2893, 3013, 3012
2961, 2893, 2894, 3014, 3013
2962, 2894, 2895, 3015, 3014
2963, 2895, 2896, 3016, 3015
2964, 2896, 2897, 3017, 3016
2965, 2897, 2898, 3018, 3017
2966, 2898, 2899, 3019, 3018
2967, 2899, 2900, 3020, 3019
2968, 2900, 2901, 3021, 3020
2969, 2901, 2902, 3022, 3021
2970, 2902, 2903, 3023, 3022
2971, 2903, 2904, 3024, 3023
2972, 2904, 2905, 3025, 3024
2973, 2905, 2906, 3026, 3025
2974, 2906, 2907, 3027, 3026
2975, 2907, 2908, 3028, 3027
2976, 2908, 2909, 3029, 3028
2977, 2909, 2910, 3030, 3029
2978, 2910, 2911, 3031, 3030
2979, 2911, 2912, 3032, 3031
2980, 2912, 2913, 3033, 3032
2981, 2913, 2914, 3034, 3033
2982, 2914, 2915, 3035, 3034
2983, 2915, 2916, 3036, 3035
2984, 2916, 2917, 3037, 3036
2985, 2917, 2918, 3038, 3037
2986, 2918, 2919, 3039, 3038
2987, 2919, 2920, 3040, 3039
2988, 2920, 2921, 3041, 3040
2989, 2921, 2922, 3042, 3041
2990, 2922, 2923, 3043, 3042
2991, 2923, 2924, 3044, 3043
2992, 2924, 2925, 3045, 3044
2993, 2925, 2926, 3046, 3045
2994, 2926, 2927, 3047, 3046
2995, 2927, 2928, 3048, 3047
2996, 2928, 2929, 3049, 3048
2997, 2929, 2930, 3050, 3049
2998, 2930, 2931, 3051, 3050
2999, 2931, 2932, 3052, 3051
3000, 2932, 2933, 3053, 3052
3001, 2933, 2934, 3054, 3053
3002, 2934, 2935, 3055, 3054
3003, 2935, 2936, 3056, 3055
3004, 2936, 2937, 3057, 3056
3005, 2937, 2938, 3058, 3057
3006, 2938, 2939, 3059, 3058
3007, 2939, 2940, 3060, 3059
3008, 2940, 2941, 3061, 3060
3009, 2941, 2942, 3062, 3061
3010, 2942, 2943, 3063, 3062
3011, 2943, 2944, 3064, 3063
3012, 2944, 2945, 3065, 3064
3013, 2945, 2946, 3066, 3065
3014, 2946, 2947, 3067, 3066
3015, 2947, 2948, 3068, 3067
3016, 2948, 2949, 3069, 3068
3017, 2949, 2950, 3070, 3069
3018, 2950, 2951, 3071, 3070
3019, 2951, 2952, 3072, 3071
3020, 2952, 2953, 3073, 3072
3021, 2953, 2954, 3074, 3073
3022, 2954, 2955, 3075, 3074
3023, 2955, 2956, 3076, 3075
3024, 2956, 2957, 3077, 3076
3025, 2957, 2958, 3078, 3077
3026, 2958, 2959, 3079, 3078
3027, 2959, 2960, 3080, 3079
3028, 2960, 2961, 3081, 3080
3029, 2961, 2962, 3082, 3081
3030, 2962, 2963, 3083, 3082
3031, 2963, 2964, 3084, 3083
3032, 2964, 2965, 3085, 3084
3033, 2965, 2966, 3086, 3085
3034, 2966, 2967, 3087, 3086
3035, 2967, 2968, 3088, 3087
3036, 2968, 2969, 3089, 3088
3037, 2969, 2970, 3090, 3089
3038, 2970, 2971, 3091, 3090
3039, 2971, 2972, 3092, 3091
3040, 2972, 2973, 3093, 3092
3041, 2973, 2974, 3094, 3093
3042, 2974, 2975, 3095, 3094
3043, 2975, 2976, 3096, 3095
3044, 2976, 2977, 3097, 3096
3045, 2977, 2978, 3098, 3097
3046, 2978, 2979, 3099, 3098
3047, 2979, 2980, 3100, 3099
3048, 2980, 2861, 2981, 3100
3049, 2981, 2982, 3102, 3101
3050, 2982, 2983, 3103, 3102
3051, 2983, 2984, 3104, 3103
3052, 2984, 2985, 3105, 3104
3053, 2985, 2986, 3106, 3105
3054, 2986, 2987, 3107, 3106
3055, 2987, 2988, 3108, 3107
3056, 2988, 2989, 3109, 3108
3057, 2989, 2990, 3110, 3109
3058, 2990, 2991, 3111, 3110
3059, 2991, 2992, 3112, 3111
3060, 2992, 2993, 3113, 3112
3061, 2993, 2994, 3114, 3113
3062, 2994, 2995, 3115, 3114
3063, 2995, 2996, 3116, 3115
3064, 2996, 2997, 3117, 3116
3065, 2997, 2998, 3118, 3117
3066, 2998, 2999, 3119, 3118
3067, 2999, 3000, 3120, 3119
3068, 3000, 3001, 3121, 3120
3069, 3001, 3002, 3122, 3121
3070, 3002, 3003, 3123, 3122
3071, 3003, 3004, 3124, 3123
3072, 3004, 3005, 3125, 3124
3073, 3005, 3006, 3126, 3125
3074, 3006, 3007, 3127, 3126
3075, 3007, 3008, 3128, 3127
3076, 3008, 3009, 3129, 3128
3077, 3009, 3010, 3130, 3129
3078, 3010, 3011, 3131, 3130
3079, 3011, 3012, 3132, 3131
3080, 3012, 3013, 3133, 3132
3081, 3013, 3014, 3134, 3133
3082, 3014, 3015, 3135, 3134
3083, 3015, 3016, 3136, 3135
3084, 3016, 3017, 3137, 3136
3085, 3017, 3018, 3138, 3137
3086, 3018, 3019, 3139, 3138
3087, 3019, 3020, 3140, 3139
3088, 3020, 3021, 3141, 3140
3089, 3021, 3022, 3142, 3141
3090, 3022, 3023, 3143, 3142
3091, 3023, 3024, 3144, 3143
3092, 3024, 3025, 3145, 3144
3093, 3025, 3026, 3146, 3145
3094, 3026, 3027, 3147, 3146
3095, 3027, 3028, 3148, 3147
3096, 3028, 3029, 3149, 3148
3097, 3029, 3030, 3150, 3149
3098, 3030, 3031, 3151, 3150
3099, 3031, 3032, 3152, 3151
3100, 3032, 3033, 3153, 3152
3101, 3033, 3034, 3154, 3153
3102, 3034, 3035, 3155, 3154
3103, 3035, 3036, 3156, 3155
3104, 3036, 3037, 3157, 3156
3105, 3037, 3038, 3158, 3157
3106, 3038, 3039, 3159, 3158
3107, 3039, 3040, 3160, 3159
3108, 3040, 3041, 3161, 3160
3109, 3041, 3042, 3162, 3161
3110, 3042, 3043, 3163, 3162
3111, 3043, 3044, 3164, 3163
3112, 3044, 3045, 3165, 3164
3113, 3045, 3046, 3166, 3165
3114, 3046, 3047, 3167, 3166
3115, 3047, 3048, 3168, 3167
3116, 3048, 3049, 3169, 3168
3117, 3049, 3050, 3170, 3169
3118, 3050, 3051, 3171, 3170
3119, 3051, 3052, 3172, 3171
3120, 3052, 3053, 3173, 3172
3121, 3053, 3054, 3174, 3173
3122, 3054, 3055, 3175, 3174
3123, 3055, 3056, 3176, 3175
3124, 3056, 3057, 3177, 3176
3125, 3057, 3058, 3178, 3177
3126, 3058, 3059, 3179, 3178
3127, 3059, 3060, 3180, 3179
3128, 3060, 3061, 3181, 3180
3129, 3061, 3062, 3182, 3181
3130, 3062, 3063, 3183, 3182
3131, 3063, 3064, 3184, 3183
3132, 3064, 3065, 3185, 3184
3133, 3065, 3066, 3186, 3185
3134, 3066, 3067, 3187, 3186
3135, 3067, 3068, 3188, 3187
3136, 3068, 3069, 3189, 3188
3137, 3069, 3070, 3190, 3189
3138, 3070, 3071, 3191, 3190
3139, 3071, 3072, 3192, 3191
3140, 3072, 3073, 3193, 3192
3141, 3073, 3074, 3194, 3193
3142, 3074, 3075, 3195, 3194
3143, 3075, 3076, 3196, 3195
3144, 3076, 3077, 3197, 3196
3145, 3077, 3078, 3198, 3197
3146, 3078, 3079, 3199, 3198
3147, 3079, 3080, 3200, 3199
3148, 3080, 3081, 3201, 3200
3149, 3081, 3082, 3202, 3201
3150, 3082, 3083, 3203, 3202
3151, 3083, 3084, 3204, 3203
3152, 3084, 3085, 3205, 3204
3153, 3085, 3086, 3206, 3205
3154, 3086, 3087, 3207, 3206
3155, 3087, 3088, 3208, 3207
3156, 3088, 3089, 3209, 3208
3157, 3089, 3090, 3210, 3209
3158, 3090, 3091, 3211, 3210
3159, 3091, 3092, 3212, 3211
3160, 3092, 3093, 3213, 3212
3161, 3093, 3094, 3214, 3213
3162, 3094, 3095, 3215, 3214
3163, 3095, 3096, 3216, 3215
3164, 3096, 3097, 3217, 3216
3165, 3097, 3098, 3218, 3217
3166, 3098, 3099, 3219, 3218
3167, 3099, 3100, 3220, 3219
3168, 3100, 2981, 3101, 3220
3169, 3101, 3102, 3222, 3221
3170, 3102, 3103, 3223, 3222
3171, 3103, 3104, 3224, 3223
3172, 3104, 3105, 3225, 3224
3173, 3105, 3106, 3226, 3225
3174, 3106, 3107, 3227, 3226
3175, 3107, 3108, 3228, 3227
3176, 3108, 3109, 3229, 3228
3177, 3109, 3110, 3230, 3229
3178, 3110, 3111, 3231, 3230
3179, 3111, 3112, 3232, 3231
3180, 3112, 3113, 3233, 3232
3181, 3113, 3114, 3234, 3233
3182, 3114, 3115, 3235, 3234
3183, 3115, 3116, 3236, 3235
3184, 3116, 3117, 3237, 3236
3185, 3117, 3118, 3238, 3237
3186, 3118, 3119, 3239, 3238
3187, 3119, 3120, 3240, 3239
3188, 3120, 3121, 3241, 3240
3189, 3121, 3122, 3242, 3241
3190, 3122, 3123, 3243, 3242
3191, 3123, 3124, 3244, 3243
3192, 3124, 3125, 3245, 3244
3193, 3125, 3126, 3246, 3245
3194, 3126, 3127, 3247, 3246
3195, 3127, 3128, 3248, 3247
3196, 3128, 3129, 3249, 3248
3197, 3129, 3130, 3250, 3249
3198, 3130, 3131, 3251, 3250
3199, 3131, 3132, 3252, 3251
3200, 3132, 3133, 3253, 3252
3201, 3133, 3134, 3254, 3253
3202, 3134, 3135, 3255, 3254
3203, 3135, 3136, 3256, 3255
3204, 3136, 3137, 3257, 3256
3205, 3137, 3138, 3258, 3257
3206, 3138, 3139, 3259, 3258
3207, 3139, 3140, 3260, 3259
3208, 3140, 3141, 3261, 3260
3209, 3141, 3142, 3262, 3261
3210, 3142, 3143, 3263, 3262
3211, 3143, 3144, 3264, 3263
3212, 3144, 3145, 3265, 3264
3213, 3145, 3146, 3266, 3265
3214, 3146, 3147, 3267, 3266
3215, 3147, 3148, 3268, 3267
3216, 3148, 3149, 3269, 3268
3217, 3149, 3150, 3270, 3269
3218, 3150, 3151, 3271, 3270
3219, 3151, 3152, 3272, 3271
3220, 3152, 3153, 3273, 3272
3221, 3153, 3154, 3274, 3273
3222, 3154, 3155, 3275, 3274
3223, 3155, 3156, 3276, 3275
3224, 3156, 3157, 3277, 3276
3225, 3157, 3158, 3278, 3277
3226, 3158, 3159, 3279, 3278
3227, 3159, 3160, 3280, 3279
3228, 3160, 3161, 3281, 3280
3229, 3161, 3162, 3282, 3281
3230, 3162, 3163, 3283, 3282
3231, 3163, 3164, 3284, 3283
3232, 3164, 3165, 3285, 3284
3233, 3165, 3166, 3286, 3285
3234, 3166, 3167, 3287, 3286
3235, 3167, 3168, 3288, 3287
3236, 3168, 3169, 3289, 3288
3237, 3169, 3170, 3290, 3289
3238, 3170, 3171, 3291, 3290
3239, 3171, 3172, 3292, 3291
3240, 3172, 3173, 3293, 3292
3241, 3173, 3174, 3294, 3293
3242, 3174, 3175, 3295, 3294
3243, 3175, 3176, 3296, 3295
3244, 3176, 3177, 3297, 3296
3245, 3177, 3178, 3298, 3297
3246, 3178, 3179, 3299, 3298
3247, 3179, 3180, 3300, 3299
3248, 3180, 3181, 3301, 3300
3249, 3181, 3182, 3302, 3301
3250, 3182, 3183, 3303, 3302
3251, 3183, 3184, 3304, 3303
3252, 3184, 3185, 3305, 3304
3253, 3185, 3186, 3306, 3305
3254, 3186, 3187, 3307, 3306
3255, 3187, 3188, 3308, 3307
3256, 3188, 3189, 3309, 3308
3257, 3189, 3190, 3310, 3309
3258, 3190, 3191, 3311, 3310
3259, 3191, 3192, 3312, 3311
3260, 3192, 3193, 3313, 3312
3261, 3193, 3194, 3314, 3313
3262, 3194, 3195, 3315, 3314
3263, 3195, 3196, 3316, 3315
3264, 3196, 3197, 3317, 3316
3265, 3197, 3198, 3318, 3317
3266, 3198, 3199, 3319, 3318
3267, 3199, 3200, 3320, 3319
3268, 3200, 3201, 3321, 3320
3269, 3201, 3202, 3322, 3321
3270, 3202, 3203, 3323, 3322
3271, 3203, 3204, 3324, 3323
3272, 3204, 3205, 3325, 3324
3273, 3205, 3206, 3326, 3325
3274, 3206, 3207, 3327, 3326
3275, 3207, 3208, 3328, 3327
3276, 3208, 3209, 3329, 3328
3277, 3209, 3210, 3330, 3329
3278, 3210, 3211, 3331, 3330
3279, 3211, 3212, 3332, 3331
3280, 3212, 3213, 3333, 3332
3281, 3213, 3214, 3334, 3333
3282, 3214, 3215, 3335, 3334
3283, 3215, 3216, 3336, 3335
3284, 3216, 3217, 3337, 3336
3285, 3217, 3218, 3338, 3337
3286, 3218, 3219, 3339, 3338
3287, 3219, 3220, 3340, 3339
3288, 3220, 3101, 3221, 3340
3289, 3221, 3222, 3342, 3341
3290, 3222, 3223, 3343, 3342
3291, 3223, 3224, 3344, 3343
3292, 3224, 3225, 3345, 3344
3293, 3225, 3226, 3346, 3345
3294, 3226, 3227, 3347, 3346
3295, 3227, 3228, 3348, 3347
3296, 3228, 3229, 3349, 3348
3297, 3229, 3230, 3350, 3349
3298, 3230, 3231, 3351, 3350
3299, 3231, 3232, 3352, 3351
3300, 3232, 3233, 3353, 3352
3301, 3233, 3234, 3354, 3353
3302, 3234, 3235, 3355, 3354
3303, 3235, 3236, 3356, 3355
3304, 3236, 3237, 3357, 3356
3305, 3237, 3238, 3358, 3357
3306, 3238, 3239, 3359, 3358
3307, 3239, 3240, 3360, 3359
3308, 3240, 3241, 3361, 3360
3309, 3241, 3242, 3362, 3361
3310, 3242, 3243, 3363, 3362
3311, 3243, 3244, 3364, 3363
3312, 3244, 3245, 3365, 3364
3313, 3245, 3246, 3366, 3365
3314, 3246, 3247, 3367, 3366
3315, 3247, 3248, 3368, 3367
3316, 3248, 3249, 3369, 3368
3317, 3249, 3250, 3370, 3369
3318, 3250, 3251, 3371, 3370
3319, 3251, 3252, 3372, 3371
3320, 3252, 3253, 3373, 3372
3321, 3253, 3254, 3374, 3373
3322, 3254, 3255, 3375, 3374
3323, 3255, 3256, 3376, 3375
3324, 3256, 3257, 3377, 3376
3325, 3257, 3258, 3378, 3377
3326, 3258, 3259, 3379, 3378
3327, 3259, 3260, 3380, 3379
3328, 3260, 3261, 3381, 3380
3329, 3261, 3262, 3382, 3381
3330, 3262, 3263, 3383, 3382
3331, 3263, 3264, 3384, 3383
3332, 3264, 3265, 3385, 3384
3333, 3265, 3266, 3386, 3385
3334, 3266, 3267, 3387, 3386
3335, 3267, 3268, 3388, 3387
3336, 3268, 3269, 3389, 3388
3337, 3269, 3270, 3390, 3389
3338, 3270, 3271, 3391, 3390
3339, 3271, 3272, 3392, 3391
3340, 3272, 3273, 3393, 3392
3341, 3273, 3274, 3394, 3393
3342, 3274, 3275, 3395, 3394
3343, 3275, 3276, 3396, 3395
3344, 3276, 3277, 3397, 3396
3345, 3277, 3278, 3398, 3397
3346, 3278, 3279, 3399, 3398
3347, 3279, 3280, 3400, 3399
3348, 3280, 3281, 3401, 3400
3349, 3281, 3282, 3402, 3401
3350, 3282, 3283, 3403, 3402
3351, 3283, 3284, 3404, 3403
3352, 3284, 3285, 3405, 3404
3353, 3285, 3286, 3406, 3405
3354, 3286, 3287, 3407, 3406
3355, 3287, 3288, 3408, 3407
3356, 3288, 3289, 3409, 3408
3357, 3289, 3290, 3410, 3409
3358, 3290, 3291, 3411, 3410
3359, 3291, 3292, 3412, 3411
3360, 3292, 3293, 3413, 3412
3361, 3293, 3294, 3414, 3413
3362, 3294, 3295, 3415, 3414
3363, 3295, 3296, 3416, 3415
3364, 3296, 3297, 3417, 3416
3365, 3297, 3298, 3418, 3417
3366, 3298, 3299, 3419, 3418
3367, 3299, 3300, 3420, 3419
3368, 3300, 3301, 3421, 3420
3369, 3301, 3302, 3422, 3421
3370, 3302, 3303, 3423, 3422
3371, 3303, 3304, 3424, 3423
3372, 3304, 3305, 3425, 3424
3373, 3305, 3306, 3426, 3425
3374, 3306, 3307, 3427, 3426
3375, 3307, 3308, 3428, 3427
3376, 3308, 3309, 3429, 3428
3377, 3309, 3310, 3430, 3429
3378, 3310, 3311, 3431, 3430
3379, 3311, 3312, 3432, 3431
3380, 3312, 3313, 3433, 3432
3381, 3313, 3314, 3434, 3433
3382, 3314, 3315, 3435, 3434
3383, 3315, 3316, 3436, 3435
3384, 3316, 3317, 3437, 3436
3385, 3317, 3318, 3438, 3437
3386, 3318, 3319, 3439, 3438
3387, 3319, 3320, 3440, 3439
3388, 3320, 3321, 3441, 3440
3389, 3321, 3322, 3442, 3441
3390, 3322, 3323, 3443, 3442
3391, 3323, 3324, 3444, 3443
3392, 3324, 3325, 3445, 3444
3393, 3325, 3326, 3446, 3445
3394, 3326, 3327, 3447, 3446
3395, 3327, 3328, 3448, 3447
3396, 3328, 3329, 3449, 3448
3397, 3329, 3330, 3450, 3449
3398, 3330, 3331, 3451, 3450
3399, 3331, 3332, 3452, 3451
3400, 3332, 3333, 3453, 3452
3401, 3333, 3334, 3454, 3453
3402, 3334, 3335, 3455, 3454
3403, 3335, 3336, 3456, 3455
3404, 3336, 3337, 3457, 3456
3405, 3337, 3338, 3458, 3457
3406, 3338, 3339, 3459, 3458
3407, 3339, 3340, 3460, 3459
3408, 3340, 3221, 3341, 3460
3409, 3341, 3342, 3462, 3461
3410, 3342, 3343, 3463, 3462
3411, 3343, 3344, 3464, 3463
3412, 3344, 3345, 3465, 3464
3413, 3345, 3346, 3466, 3465
3414, 3346, 3347, 3467, 3466
3415, 3347, 3348, 3468, 3467
3416, 3348, 3349, 3469, 3468
3417, 3349, 3350, 3470, 3469
3418, 3350, 3351, 3471, 3470
3419, 3351, 3352, 3472, 3471
3420, 3352, 3353, 3473, 3472
3421, 3353, 3354, 3474, 3473
3422, 3354, 3355, 3475, 3474
3423, 3355, 3356, 3476, 3475
3424, 3356, 3357, 3477, 3476
3425, 3357, 3358, 3478, 3477
3426, 3358, 3359, 3479, 3478
3427, 3359, 3360, 3480, 3479
3428, 3360, 3361, 3481, 3480
3429, 3361, 3362, 3482, 3481
3430, 3362, 3363, 3483, 3482
3431, 3363, 3364, 3484, 3483
3432, 3364, 3365, 3485, 3484
3433, 3365, 3366, 3486, 3485
3434, 3366, 3367, 3487, 3486
3435, 3367, 3368, 3488, 3487
3436, 3368, 3369, 3489, 3488
3437, 3369, 3370, 3490, 3489
3438, 3370, 3371, 3491, 3490
3439, 3371, 3372, 3492, 3491
3440, 3372, 3373, 3493, 3492
3441, 3373, 3374, 3494, 3493
3442, 3374, 3375, 3495, 3494
3443, 3375, 3376, 3496, 3495
3444, 3376, 3377, 3497, 3496
3445, 3377, 3378, 3498, 3497
3446, 3378, 3379, 3499, 3498
3447, 3379, 3380, 3500, 3499
3448, 3380, 3381, 3501, 3500
3449, 3381, 3382, 3502, 3501
3450, 3382, 3383, 3503, 3502
3451, 3383, 3384, 3504, 3503
3452, 3384, 3385, 3505, 3504
3453, 3385, 3386, 3506, 3505
3454, 3386, 3387, 3507, 3506
3455, 3387, 3388, 3508, 3507
3456, 3388, 3389, 3509, 3508
3457, 3389, 3390, 3510, 3509
3458, 3390, 3391, 3511, 3510
3459, 3391, 3392, 3512, 3511
3460, 3392, 3393, 3513, 3512
3461, 3393, 3394, 3514, 3513
3462, 3394, 3395, 3515, 3514
3463, 3395, 3396, 3516, 3515
3464, 3396, 3397, 3517, 3516
3465, 3397, 3398, 3518, 3517
3466, 3398, 3399, 3519, 3518
3467, 3399, 3400, 3520, 3519
3468, 3400, 3401, 3521, 3520
3469, 3401, 3402, 3522, 3521
3470, 3402, 3403, 3523, 3522
3471, 3403, 3404, 3524, 3523
3472, 3404, 3405, 3525, 3524
3473, 3405, 3406, 3526, 3525
3474, 3406, 3407, 3527, 3526
3475, 3407, 3408, 3528, 3527
3476, 3408, 3409, 3529, 3528
3477, 3409, 3410, 3530, 3529
3478, 3410, 3411, 3531, 3530
3479, 3411, 3412, 3532, 3531
3480, 3412, 3413, 3533, 3532
3481, 3413, 3414, 3534, 3533
3482, 3414, 3415, 3535, 3534
3483, 3415, 3416, 3536, 3535
3484, 3416, 3417, 3537, 3536
3485, 3417, 3418, 3538, 3537
3486, 3418, 3419, 3539, 3538
3487, 3419, 3420, 3540, 3539
3488, 3420, 3421, 3541, 3540
3489, 3421, 3422, 3542, 3541
3490, 3422, 3423, 3543, 3542
3491, 3423, 3424, 3544, 3543
3492, 3424, 3425, 3545, 3544
3493, 3425, 3426, 3546, 3545
3494, 3426, 3427, 3547, 3546
3495, 3427, 3428, 3548, 3547
3496, 3428, 3429, 3549, 3548
3497, 3429, 3430, 3550, 3549
3498, 3430, 3431, 3551, 3550
3499, 3431, 3432, 3552, 3551
3500, 3432, 3433, 3553, 3552
3501, 3433, 3434, 3554, 3553
3502, 3434, 3435, 3555, 3554
3503, 3435, 3436, 3556, 3555
3504, 3436, 3437, 3557, 3556
3505, 3437, 3438, 3558, 3557
3506, 3438, 3439, 3559, 3558
3507, 3439, 3440, 3560, 3559
3508, 3440, 3441, 3561, 3560
3509, 3441, 3442, 3562, 3561
3510, 3442, 3443, 3563, 3562
3511, 3443, 3444, 3564, 3563
3512, 3444, 3445, 3565, 3564
3513, 3445, 3446, 3566, 3565
3514, 3446, 3447, 3567, 3566
3515, 3447, 3448, 3568, 3567
3516, 3448, 3449, 3569, 3568
3517, 3449, 3450, 3570, 3569
3518, 3450, 3451, 3571, 3570
3519, 3451, 3452, 3572, 3571
3520, 3452, 3453, 3573, 3572
3521, 3453, 3454, 3574, 3573
3522, 3454, 3455, 3575, 3574
3523, 3455, 3456, 3576, 3575
3524, 3456, 3457, 3577, 3576
3525, 3457, 3458, 3578, 3577
3526, 3458, 3459, 3579, 3578
3527, 3459, 3460, 3580, 3579
3528, 3460, 3341, 3461, 3580
3529, 3461, 3462, 3582, 3581
3530, 3462, 3463, 3583, 3582
3531, 3463, 3464, 3584, 3583
3532, 3464, 3465, 3585, 3584
3533, 3465, 3466, 3586, 3585
3534, 3466, 3467, 3587, 3586
3535, 3467, 3468, 3588, 3587
3536, 3468, 3469, 3589, 3588
3537, 3469, 3470, 3590, 3589
3538, 3470, 3471, 3591, 3590
3539, 3471, 3472, 3592, 3591
3540, 3472, 3473, 3593, 3592
3541, 3473, 3474, 3594, 3593
3542, 3474, 3475, 3595, 3594
3543, 3475, 3476, 3596, 3595
3544, 3476, 3477, 3597, 3596
3545, 3477, 3478, 3598, 3597
3546, 3478, 3479, 3599, 3598
3547, 3479, 3480, 3600, 3599
3548, 3480, 3481, 3601, 3600
3549, 3481, 3482, 3602, 3601
3550, 3482, 3483, 3603, 3602
3551, 3483, 3484, 3604, 3603
3552, 3484, 3485, 3605, 3604
3553, 3485, 3486, 3606, 3605
3554, 3486, 3487, 3607, 3606
3555, 3487, 3488, 3608, 3607
3556, 3488, 3489, 3609, 3608
3557, 3489, 3490, 3610, 3609
3558, 3490, 3491, 3611, 3610
3559, 3491, 3492, 3612, 3611
3560, 3492, 3493, 3613, 3612
3561, 3493, 3494, 3614, 3613
3562, 3494, 3495, 3615, 3614
3563, 3495, 3496, 3616, 3615
3564, 3496, 3497, 3617, 3616
3565, 3497, 3498, 3618, 3617
3566, 3498, 3499, 3619, 3618
3567, 3499, 3500, 3620, 3619
3568, 3500, 3501, 3621, 3620
3569, 3501, 3502, 3622, 3621
3570, 3502, 3503, 3623, 3622
3571, 3503, 3504, 3624, 3623
3572, 3504, 3505, 3625, 3624
3573, 3505, 3506, 3626, 3625
3574, 3506, 3507, 3627, 3626
3575, 3507, 3508, 3628, 3627
3576, 3508, 3509, 3629, 3628
3577, 3509, 3510, 3630, 3629
3578, 3510, 3511, 3631, 3630
3579, 3511, 3512, 3632, 3631
3580, 3512, 3513, 3633, 3632
3581, 3513, 3514, 3634, 3633
3582, 3514, 3515, 3635, 3634
3583, 3515, 3516, 3636, 3635
3584, 3516, 3517, 3637, 3636
3585, 3517, 3518, 3638, 3637
3586, 3518, 3519, 3639, 3638
3587, 3519, 3520, 3640, 3639
3588, 3520, 3521, 3641, 3640
3589, 3521, 3522, 3642, 3641
3590, 3522, 3523, 3643, 3642
3591, 3523, 3524, 3644, 3643
3592, 3524, 3525, 3645, 3644
3593, 3525, 3526, 3646, 3645
3594, 3526, 3527, 3647, 3646
3595, 3527, 3528, 3648, 3647
3596, 3528, 3529, 3649, 3648
3597, 3529, 3530, 3650, 3649
3598, 3530, 3531, 3651, 3650
3599, 3531, 3532, 3652, 3651
3600, 3532, 3533, 3653, 3652
3601, 3533, 3534, 3654, 3653
3602, 3534, 3535, 3655, 3654
3603, 3535, 3536, 3656, 3655
3604, 3536, 3537, 3657, 3656
3605, 3537, 3538, 3658, 3657
3606, 3538, 3539, 3659, 3658
3607, 3539, 3540, 3660, 3659
3608, 3540, 3541, 3661, 3660
3609, 3541, 3542, 3662, 3661
3610, 3542, 3543, 3663, 3662
3611, 3543, 3544, 3664, 3663
3612, 3544, 3545, 3665, 3664
3613, 3545, 3546, 3666, 3665
3614, 3546, 3547, 3667, 3666
3615, 3547, 3548, 3668, 3667
3616, 3548, 3549, 3669, 3668
3617, 3549, 3550, 3670, 3669
3618, 3550, 3551, 3671, 3670
3619, 3551, 3552, 3672, 3671
3620, 3552, 3553, 3673, 3672
3621, 3553, 3554, 3674, 3673
3622, 3554, 3555, 3675, 3674
3623, 3555, 3556, 3676, 3675
3624, 3556, 3557, 3677, 3676
3625, 3557, 3558, 3678, 3677
3626, 3558, 3559, 3679, 3678
3627, 3559, 3560, 3680, 3679
3628, 3560, 3561, 3681, 3680
3629, 3561, 3562, 3682, 3681
3630, 3562, 3563, 3683, 3682
3631, 3563, 3564, 3684, 3683
3632, 3564, 3565, 3685, 3684
3633, 3565, 3566, 3686, 3685
3634, 3566, 3567, 3687, 3686
3635, 3567, 3568, 3688, 3687
3636, 3568, 3569, 3689, 3688
3637, 3569, 3570, 3690, 3689
3638, 3570, 3571, 3691, 3690
3639, 3571, 3572, 3692, 3691
3640, 3572, 3573, 3693, 3692
3641, 3573, 3574, 3694, 3693
3642, 3574, 3575, 3695, 3694
3643, 3575, 3576, 3696, 3695
3644, 3576, 3577, 3697, 3696
3645, 3577, 3578, 3698, 3697
3646, 3578, 3579, 3699, 3698
3647, 3579, 3580, 3700, 3699
3648, 3580, 3461, 3581, 3700
3649, 3581, 3582, 3702, 3701
3650, 3582, 3583, 3703, 3702
3651, 3583, 3584, 3704, 3703
3652, 3584, 3585, 3705, 3704
3653, 3585, 3586, 3706, 3705
3654, 3586, 3587, 3707, 3706
3655, 3587, 3588, 3708, 3707
3656, 3588, 3589, 3709, 3708
3657, 3589, 3590, 3710, 3709
3658, 3590, 3591, 3711, 3710
3659, 3591, 3592, 3712, 3711
3660, 3592, 3593, 3713, 3712
3661, 3593, 3594, 3714, 3713
3662, 3594, 3595, 3715, 3714
3663, 3595, 3596, 3716, 3715
3664, 3596, 3597, 3717, 3716
3665, 3597, 3598, 3718, 3717
3666, 3598, 3599, 3719, 3718
3667, 3599, 3600, 3720, 3719
3668, 3600, 3601, 3721, 3720
3669, 3601, 3602, 3722, 3721
3670, 3602, 3603, 3723, 3722
3671, 3603, 3604, 3724, 3723
3672, 3604, 3605, 3725, 3724
3673, 3605, 3606, 3726, 3725
3674, 3606, 3607, 3727, 3726
3675, 3607, 3608, 3728, 3727
3676, 3608, 3609, 3729, 3728
3677, 3609, 3610, 3730, 3729
3678, 3610, 3611, 3731, 3730
3679, 3611, 3612, 3732, 3731
3680, 3612, 3613, 3733, 3732
3681, 3613, 3614, 3734, 3733
3682, 3614, 3615, 3735, 3734
3683, 3615, 3616, 3736, 3735
3684, 3616, 3617, 3737, 3736
3685, 3617, 3618, 3738, 3737
3686, 3618, 3619, 3739, 3738
3687, 3619, 3620, 3740, 3739
3688, 3620, 3621, 3741, 3740
3689, 3621, 3622, 3742, 3741
3690, 3622, 3623, 3743, 3742
3691, 3623, 3624, 3744, 3743
3692, 3624, 3625, 3745, 3744
3693, 3625, 3626, 3746, 3745
3694, 3626, 3627, 3747, 3746
3695, 3627, 3628, 3748, 3747
3696, 3628, 3629, 3749, 3748
3697, 3629, 3630, 3750, 3749
3698, 3630, 3631, 3751, 3750
3699, 3631, 3632, 3752, 3751
3700, 3632, 3633, 3753, 3752
3701, 3633, 3634, 3754, 3753
3702, 3634, 3635, 3755, 3754
3703, 3635, 3636, 3756, 3755
3704, 3636, 3637, 3757, 3756
3705, 3637, 3638, 3758, 3757
3706, 3638, 3639, 3759, 3758
3707, 3639, 3640, 3760, 3759
3708, 3640, 3641, 3761, 3760
3709, 3641, 3642, 3762, 3761
3710, 3642, 3643, 3763, 3762
3711, 3643, 3644, 3764, 3763
3712, 3644, 3645, 3765, 3764
3713, 3645, 3646, 3766, 3765
3714, 3646, 3647, 3767, 3766
3715, 3647, 3648, 3768, 3767
3716, 3648, 3649, 3769, 3768
3717, 3649, 3650, 3770, 3769
3718, 3650, 3651, 3771, 3770
3719, 3651, 3652, 3772, 3771
3720, 3652, 3653, 3773, 3772
3721, 3653, 3654, 3774, 3773
3722, 3654, 3655, 3775, 3774
3723, 3655, 3656, 3776, 3775
3724, 3656, 3657, 3777, 3776
3725, 3657, 3658, 3778, 3777
3726, 3658, 3659, 3779, 3778
3727, 3659, 3660, 3780, 3779
3728, 3660, 3661, 3781, 3780
3729, 3661, 3662, 3782, 3781
3730, 3662, 3663, 3783, 3782
3731, 3663, 3664, 3784, 3783
3732, 3664, 3665, 3785, 3784
3733, 3665, 3666, 3786, 3785
3734, 3666, 3667, 3787, 3786
3735, 3667, 3668, 3788, 3787
3736, 3668, 3669, 3789, 3788
3737, 3669, 3670, 3790, 3789
3738, 3670, 3671, 3791, 3790
3739, 3671, 3672, 3792, 3791
3740, 3672, 3673, 3793, 3792
3741, 3673, 3674, 3794, 3793
3742, 3674, 3675, 3795, 3794
3743, 3675, 3676, 3796, 3795
3744, 3676, 3677, 3797, 3796
3745, 3677, 3678, 3798, 3797
3746, 3678, 3679, 3799, 3798
3747, 3679, 3680, 3800, 3799
3748, 3680, 3681, 3801, 3800
3749, 3681, 3682, 3802, 3801
3750, 3682, 3683, 3803, 3802
3751, 3683, 3684, 3804, 3803
3752, 3684, 3685, 3805, 3804
3753, 3685, 3686, 3806, 3805
3754, 3686, 3687, 3807, 3806
3755, 3687, 3688, 3808, 3807
3756, 3688, 3689, 3809, 3808
3757, 3689, 3690, 3810, 3809
3758, 3690, 3691, 3811, 3810
3759, 3691, 3692, 3812, 3811
3760, 3692, 3693, 3813, 3812
3761, 3693, 3694, 3814, 3813
3762, 3694, 3695, 3815, 3814
3763, 3695, 3696, 3816, 3815
3764, 3696, 3697, 3817, 3816
3765, 3697, 3698, 3818, 3817
3766, 3698, 3699, 3819, 3818
3767, 3699, 3700, 3820, 3819
3768, 3700, 3581, 3701, 3820
3769, 3701, 3702, 3822, 3821
3770, 3702, 3703, 3823, 3822
3771, 3703, 3704, 3824, 3823
3772, 3704, 3705, 3825, 3824
3773, 3705, 3706, 3826, 3825
3774, 3706, 3707, 3827, 3826
3775, 3707, 3708, 3828, 3827
3776, 3708, 3709, 3829, 3828
3777, 3709, 3710, 3830, 3829
3778, 3710, 3711, 3831, 3830
3779, 3711, 3712, 3832, 3831
3780, 3712, 3713, 3833, 3832
3781, 3713, 3714, 3834, 3833
3782, 3714, 3715, 3835, 3834
3783, 3715, 3716, 3836, 3835
3784, 3716, 3717, 3837, 3836
3785, 3717, 3718, 3838, 3837
3786, 3718, 3719, 3839, 3838
3787, 3719, 3720, 3840, 3839
3788, 3720, 3721, 3841, 3840
3789, 3721, 3722, 3842, 3841
3790, 3722, 3723, 3843, 3842
3791, 3723, 3724, 3844, 3843
3792, 3724, 3725, 3845, 3844
3793, 3725, 3726, 3846, 3845
3794, 3726, 3727, 3847, 3846
3795, 3727, 3728, 3848, 3847
3796, 3728, 3729, 3849, 3848
3797, 3729, 3730, 3850, 3849
3798, 3730, 3731, 3851, 3850
3799, 3731, 3732, 3852, 3851
3800, 3732, 3733, 3853, 3852
3801, 3733, 3734, 3854, 3853
3802, 3734, 3735, 3855, 3854
3803, 3735, 3736, 3856, 3855
3804, 3736, 3737, 3857, 3856
3805, 3737, 3738, 3858, 3857
3806, 3738, 3739, 3859, 3858
3807, 3739, 3740, 3860, 3859
3808, 3740, 3741, 3861, 3860
3809, 3741, 3742, 3862, 3861
3810, 3742, 3743, 3863, 3862
3811, 3743, 3744, 3864, 3863
3812, 3744, 3745, 3865, 3864
3813, 3745, 3746, 3866, 3865
3814, 3746, 3747, 3867, 3866
3815, 3747, 3748, 3868, 3867
3816, 3748, 3749, 3869, 3868
3817, 3749, 3750, 3870, 3869
3818, 3750, 3751, 3871, 3870
3819, 3751, 3752, 3872, 3871
3820, 3752, 3753, 3873, 3872
3821, 3753, 3754, 3874, 3873
3822, 3754, 3755, 3875, 3874
3823, 3755, 3756, 3876, 3875
3824, 3756, 3757, 3877, 3876
3825, 3757, 3758, 3878, 3877
3826, 3758, 3759, 3879, 3878
3827, 3759, 3760, 3880, 3879
3828, 3760, 3761, 3881, 3880
3829, 3761, 3762, 3882, 3881
3830, 3762, 3763, 3883, 3882
3831, 3763, 3764, 3884, 3883
3832, 3764, 3765, 3885, 3884
3833, 3765, 3766, 3886, 3885
3834, 3766, 3767, 3887, 3886
3835, 3767, 3768, 3888, 3887
3836, 3768, 3769, 3889, 3888
3837, 3769, 3770, 3890, 3889
3838, 3770, 3771, 3891, 3890
3839, 3771, 3772, 3892, 3891
3840, 3772, 3773, 3893, 3892
3841, 3773, 3774, 3894, 3893
3842, 3774, 3775, 3895, 3894
3843, 3775, 3776, 3896, 3895
3844, 3776, 3777, 3897, 3896
3845, 3777, 3778, 3898, 3897
3846, 3778, 3779, 3899, 3898
3847, 3779, 3780, 3900, 3899
3848, 3780, 3781, 3901, 3900
3849, 3781, 3782, 3902, 3901
3850, 3782, 3783, 3903, 3902
3851, 3783, 3784, 3904, 3903
3852, 3784, 3785, 3905, 3904
3853, 3785, 3786, 3906, 3905
3854, 3786, 3787, 3907, 3906
3855, 3787, 3788, 3908, 3907
3856, 3788, 3789, 3909, 3908
3857, 3789, 3790, 3910, 3909
3858, 3790, 3791, 3911, 3910
3859, 3791, 3792, 3912, 3911
3860, 3792, 3793, 3913, 3912
3861, 3793, 3794, 3914, 3913
3862, 3794, 3795, 3915, 3914
3863, 3795, 3796, 3916, 3915
3864, 3796, 3797, 3917, 3916
3865, 3797, 3798, 3918, 3917
3866, 3798, 3799, 3919, 3918
3867, 3799, 3800, 3920, 3919
3868, 3800, 3801, 3921, 3920
3869, 3801, 3802, 3922, 3921
3870, 3802, 3803, 3923, 3922
3871, 3803, 3804, 3924, 3923
3872, 3804, 3805, 3925, 3924
3873, 3805, 3806, 3926, 3925
3874, 3806, 3807, 3927, 3926
3875, 3807, 3808, 3928, 3927
3876, 3808, 3809, 3929, 3928
3877, 3809, 3810, 3930, 3929
3878, 3810, 3811, 3931, 3930
3879, 3811, 3812, 3932, 3931
3880, 3812, 3813, 3933, 3932
3881, 3813, 3814, 3934, 3933
3882, 3814, 3815, 3935, 3934
3883, 3815, 3816, 3936, 3935
3884, 3816, 3817, 3937, 3936
3885, 3817, 3818, 3938, 3937
3886, 3818, 3819, 3939, 3938
3887, 3819, 3820, 3940, 3939
3888, 3820, 3701, 3821, 3940
3889, 3821, 3822, 3942, 3941
3890, 3822, 3823, 3943, 3942
3891, 3823, 3824, 3944, 3943
3892, 3824, 3825, 3945, 3944
3893, 3825, 3826, 3946, 3945
3894, 3826, 3827, 3947, 3946
3895, 3827, 3828, 3948, 3947
3896, 3828, 3829, 3949, 3948
3897, 3829, 3830, 3950, 3949
3898, 3830, 3831, 3951, 3950
3899, 3831, 3832, 3952, 3951
3900, 3832, 3833, 3953, 3952
3901, 3833, 3834, 3954, 3953
3902, 3834, 3835, 3955, 3954
3903, 3835, 3836, 3956, 3955
3904, 3836, 3837, 3957, 3956
3905, 3837, 3838, 3958, 3957
3906, 3838, 3839, 3959, 3958
3907, 3839, 3840, 3960, 3959
3908, 3840, 3841, 3961, 3960
3909, 3841, 3842, 3962, 3961
3910, 3842, 3843, 3963, 3962
3911, 3843, 3844, 3964, 3963
3912, 3844, 3845, 3965, 3964
3913, 3845, 3846, 3966, 3965
3914, 3846, 3847, 3967, 3966
3915, 3847, 3848, 3968, 3967
3916, 3848, 3849, 3969, 3968
3917, 3849, 3850, 3970, 3969
3918, 3850, 3851, 3971, 3970
3919, 3851, 3852, 3972, 3971
3920, 3852, 3853, 3973, 3972
3921, 3853, 3854, 3974, 3973
3922, 3854, 3855, 3975, 3974
3923, 3855, 3856, 3976, 3975
3924, 3856, 3857, 3977, 3976
3925, 3857, 3858, 3978, 3977
3926, 3858, 3859, 3979, 3978
3927, 3859, 3860, 3980, 3979
3928, 3860, 3861, 3981, 3980
3929, 3861, 3862, 3982, 3981
3930, 3862, 3863, 3983, 3982
3931, 3863, 3864, 3984, 3983
3932, 3864, 3865, 3985, 3984
3933, 3865, 3866, 3986, 3985
3934, 3866, 3867, 3987, 3986
3935, 3867, 3868, 3988, 3987
3936, 3868, 3869, 3989, 3988
3937, 3869, 3870, 3990, 3989
3938, 3870, 3871, 3991, 3990
3939, 3871, 3872, 3992, 3991
3940, 3872, 3873, 3993, 3992
3941, 3873, 3874, 3994, 3993
3942, 3874, 3875, 3995, 3994
3943, 3875, 3876, 3996, 3995
3944, 3876, 3877, 3997, 3996
3945, 3877, 3878, 3998, 3997
3946, 3878, 3879, 3999, 3998
3947, 3879, 3880, 4000, 3999
3948, 3880, 3881, 4001, 4000
3949, 3881, 3882, 4002, 4001
3950, 3882, 3883, 4003, 4002
3951, 3883, 3884, 4004, 4003
3952, 3884, 3885, 4005, 4004
3953, 3885, 3886, 4006, 4005
3954, 3886, 3887, 4007, 4006
3955, 3887, 3888, 4008, 4007
3956, 3888, 3889, 4009, 4008
3957, 3889, 3890, 4010, 4009
3958, 3890, 3891, 4011, 4010
3959, 3891, 3892, 4012, 4011
3960, 3892, 3893, 4013, 4012
3961, 3893, 3894, 4014, 4013
3962, 3894, 3895, 4015, 4014
3963, 3895, 3896, 4016, 4015
3964, 3896, 3897, 4017, 4016
3965, 3897, 3898, 4018, 4017
3966, 3898, 3899, 4019, 4018
3967, 3899, 3900, 4020, 4019
3968, 3900, 3901, 4021, 4020
3969, 3901, 3902, 4022, 4021
3970, 3902, 3903, 4023, 4022
3971, 3903, 3904, 4024, 4023
3972, 3904, 3905, 4025, 4024
3973, 3905, 3906, 4026, 4025
3974, 3906, 3907, 4027, 4026
3975, 3907, 3908, 4028, 4027
3976, 3908, 3909, 4029, 4028
3977, 3909, 3910, 4030, 4029
3978, 3910, 3911, 4031, 4030
3979, 3911, 3912, 4032, 4031
3980, 3912, 3913, 4033, 4032
3981, 3913, 3914, 4034, 4033
3982, 3914, 3915, 4035, 4034
3983, 3915, 3916, 4036, 4035
3984, 3916, 3917, 4037, 4036
3985, 3917, 3918, 4038, 4037
3986, 3918, 3919, 4039, 4038
3987, 3919, 3920, 4040, 4039
3988, 3920, 3921, 4041, 4040
3989, 3921, 3922, 4042, 4041
3990, 3922, 3923, 4043, 4042
3991, 3923, 3924, 4044, 4043
3992, 3924, 3925, 4045, 4044
3993, 3925, 3926, 4046, 4045
3994, 3926, 3927, 4047, 4046
3995, 3927, 3928, 4048, 4047
3996, 3928, 3929, 4049, 4048
3997, 3929, 3930, 4050, 4049
3998, 3930, 3931, 4051, 4050
3999, 3931, 3932, 4052, 4051
4000, 3932, 3933, 4053, 4052
4001, 3933, 3934, 4054, 4053
4002, 3934, 3935, 4055, 4054
4003, 3935, 3936, 4056, 4055
4004, 3936, 3937, 4057, 4056
4005, 3937, 3938, 4058, 4057
4006, 3938, 3939, 4059, 4058
4007, 3939, 3940, 4060, 4059
4008, 3940, 3821, 3941, 4060
4009, 3941, 3942, 4062, 4061
4010, 3942, 3943, 4063, 4062
4011, 3943, 3944, 4064, 4063
4012, 3944, 3945, 4065, 4064
4013, 3945, 3946, 4066, 4065
4014, 3946, 3947, 4067, 4066
4015, 3947, 3948, 4068, 4067
4016, 3948, 3949, 4069, 4068
4017, 3949, 3950, 4070, 4069
4018, 3950, 3951, 4071, 4070
4019, 3951, 3952, 4072, 4071
4020, 3952, 3953, 4073, 4072
4021, 3953, 3954, 4074, 4073
4022, 3954, 3955, 4075, 4074
4023, 3955, 3956, 4076, 4075
4024, 3956, 3957, 4077, 4076
4025, 3957, 3958, 4078, 4077
4026, 3958, 3959, 4079, 4078
4027, 3959, 3960, 4080, 4079
4028, 3960, 3961, 4081, 4080
4029, 3961, 3962, 4082, 4081
4030, 3962, 3963, 4083, 4082
4031, 3963, 3964, 4084, 4083
4032, 3964, 3965, 4085, 4084
4033, 3965, 3966, 4086, 4085
4034, 3966, 3967, 4087, 4086
4035, 3967, 3968, 4088, 4087
4036, 3968, 3969, 4089, 4088
4037, 3969, 3970, 4090, 4089
4038, 3970, 3971, 4091, 4090
4039, 3971, 3972, 4092, 4091
4040, 3972, 3973, 4093, 4092
4041, 3973, 3974, 4094, 4093
4042, 3974, 3975, 4095, 4094
4043, 3975, 3976, 4096, 4095
4044, 3976, 3977, 4097, 4096
4045, 3977, 3978, 4098, 4097
4046, 3978, 3979, 4099, 4098
4047, 3979, 3980, 4100, 4099
4048, 3980, 3981, 4101, 4100
4049, 3981, 3982, 4102, 4101
4050, 3982, 3983, 4103, 4102
4051, 3983, 3984, 4104, 4103
4052, 3984, 3985, 4105, 4104
4053, 3985, 3986, 4106, 4105
4054, 3986, 3987, 4107, 4106
4055, 3987, 3988, 4108, 4107
4056, 3988, 3989, 4109, 4108
4057, 3989, 3990, 4110, 4109
4058, 3990, 3991, 4111, 4110
4059, 3991, 3992, 4112, 4111
4060, 3992, 3993, 4113, 4112
4061, 3993, 3994, 4114, 4113
4062, 3994, 3995, 4115, 4114
4063, 3995, 3996, 4116, 4115
4064, 3996, 3997, 4117, 4116
4065, 3997, 3998, 4118, 4117
4066, 3998, 3999, 4119, 4118
4067, 3999, 4000, 4120, 4119
4068, 4000, 4001, 4121, 4120
4069, 4001, 4002, 4122, 4121
4070, 4002, 4003, 4123, 4122
4071, 4003, 4004, 4124, 4123
4072, 4004, 4005, 4125, 4124
4073, 4005, 4006, 4126, 4125
4074, 4006, 4007, 4127, 4126
4075, 4007, 4008, 4128, 4127
4076, 4008, 4009, 4129, 4128
4077, 4009, 4010, 4130, 4129
4078, 4010, 4011, 4131, 4130
4079, 4011, 4012, 4132, 4131
4080, 4012, 4013, 4133, 4132
4081, 4013, 4014, 4134, 4133
4082, 4014, 4015, 4135, 4134
4083, 4015, 4016, 4136, 4135
4084, 4016, 4017, 4137, 4136
4085, 4017, 4018, 4138, 4137
4086, 4018, 4019, 4139, 4138
4087, 4019, 4020, 4140, 4139
4088, 4020, 4021, 4141, 4140
4089, 4021, 4022, 4142, 4141
4090, 4022, 4023, 4143, 4142
4091, 4023, 4024, 4144, 4143
4092, 4024, 4025, 4145, 4144
4093, 4025, 4026, 4146, 4145
4094, 4026, 4027, 4147, 4146
4095, 4027, 4028, 4148, 4147
4096, 4028, 4029, 4149, 4148
4097, 4029, 4030, 4150, 4149
4098, 4030, 4031, 4151, 4150
4099, 4031, 4032, 4152, 4151
4100, 4032, 4033, 4153, 4152
4101, 4033, 4034, 4154, 4153
4102, 4034, 4035, 4155, 4154
4103, 4035, 4036, 4156, 4155
4104, 4036, 4037, 4157, 4156
4105, 4037, 4038, 4158, 4157
4106, 4038, 4039, 4159, 4158
4107, 4039, 4040, 4160, 4159
4108, 4040, 4041, 4161, 4160
4109, 4041, 4042, 4162, 4161
4110, 4042, 4043, 4163, 4162
4111, 4043, 4044, 4164, 4163
4112, 4044, 4045, 4165, 4164
4113, 4045, 4046, 4166, 4165
4114, 4046, 4047, 4167, 4166
4115, 4047, 4048, 4168, 4167
4116, 4048, 4049, 4169, 4168
4117, 4049, 4050, 4170, 4169
4118, 4050, 4051, 4171, 4170
4119, 4051, 4052, 4172, 4171
4120, 4052, 4053, 4173, 4172
4121, 4053, 4054, 4174, 4173
4122, 4054, 4055, 4175, 4174
4123, 4055, 4056, 4176, 4175
4124, 4056, 4057, 4177, 4176
4125, 4057, 4058, 4178, 4177
4126, 4058, 4059, 4179, 4178
4127, 4059, 4060, 4180, 4179
4128, 4060, 3941, 4061, 4180
4129, 4061, 4062, 4182, 4181
4130, 4062, 4063, 4183, 4182
4131, 4063, 4064, 4184, 4183
4132, 4064, 4065, 4185, 4184
4133, 4065, 4066, 4186, 4185
4134, 4066, 4067, 4187, 4186
4135, 4067, 4068, 4188, 4187
4136, 4068, 4069, 4189, 4188
4137, 4069, 4070, 4190, 4189
4138, 4070, 4071, 4191, 4190
4139, 4071, 4072, 4192, 4191
4140, 4072, 4073, 4193, 4192
4141, 4073, 4074, 4194, 4193
4142, 4074, 4075, 4195, 4194
4143, 4075, 4076, 4196, 4195
4144, 4076, 4077, 4197, 4196
4145, 4077, 4078, 4198, 4197
4146, 4078, 4079, 4199, 4198
4147, 4079, 4080, 4200, 4199
4148, 4080, 4081, 4201, 4200
4149, 4081, 4082, 4202, 4201
4150, 4082, 4083, 4203, 4202
4151, 4083, 4084, 4204, 4203
4152, 4084, 4085, 4205, 4204
4153, 4085, 4086, 4206, 4205
4154, 4086, 4087, 4207, 4206
4155, 4087, 4088, 4208, 4207
4156, 4088, 4089, 4209, 4208
4157, 4089, 4090, 4210, 4209
4158, 4090, 4091, 4211, 4210
4159, 4091, 4092, 4212, 4211
4160, 4092, 4093, 4213, 4212
4161, 4093, 4094, 4214, 4213
4162, 4094, 4095, 4215, 4214
4163, 4095, 4096, 4216, 4215
4164, 4096, 4097, 4217, 4216
4165, 4097, 4098, 4218, 4217
4166, 4098, 4099, 4219, 4218
4167, 4099, 4100, 4220, 4219
4168, 4100, 4101, 4221, 4220
4169, 4101, 4102, 4222, 4221
4170, 4102, 4103, 4223, 4222
4171, 4103, 4104, 4224, 4223
4172, 4104, 4105, 4225, 4224
4173, 4105, 4106, 4226, 4225
4174, 4106, 4107, 4227, 4226
4175, 4107, 4108, 4228, 4227
4176, 4108, 4109, 4229, 4228
4177, 4109, 4110, 4230, 4229
4178, 4110, 4111, 4231, 4230
4179, 4111, 4112, 4232, 4231
4180, 4112, 4113, 4233, 4232
4181, 4113, 4114, 4234, 4233
4182, 4114, 4115, 4235, 4234
4183, 4115, 4116, 4236, 4235
4184, 4116, 4117, 4237, 4236
4185, 4117, 4118, 4238, 4237
4186, 4118, 4119, 4239, 4238
4187, 4119, 4120, 4240, 4239
4188, 4120, 4121, 4241, 4240
4189, 4121, 4122, 4242, 4241
4190, 4122, 4123, 4243, 4242
4191, 4123, 4124, 4244, 4243
4192, 4124, 4125, 4245, 4244
4193, 4125, 4126, 4246, 4245
4194, 4126, 4127, 4247, 4246
4195, 4127, 4128, 4248, 4247
4196, 4128, 4129, 4249, 4248
4197, 4129, 4130, 4250, 4249
4198, 4130, 4131, 4251, 4250
4199, 4131, 4132, 4252, 4251
4200, 4132, 4133, 4253, 4252
4201, 4133, 4134, 4254, 4253
4202, 4134, 4135, 4255, 4254
4203, 4135, 4136, 4256, 4255
4204, 4136, 4137, 4257, 4256
4205, 4137, 4138, 4258, 4257
4206, 4138, 4139, 4259, 4258
4207, 4139, 4140, 4260, 4259
4208, 4140, 4141, 4261, 4260
4209, 4141, 4142, 4262, 4261
4210, 4142, 4143, 4263, 4262
4211, 4143, 4144, 4264, 4263
4212, 4144, 4145, 4265, 4264
4213, 4145, 4146, 4266, 4265
4214, 4146, 4147, 4267, 4266
4215, 4147, 4148, 4268, 4267
4216, 4148, 4149, 4269, 4268
4217, 4149, 4150, 4270, 4269
4218, 4150, 4151, 4271, 4270
4219, 4151, 4152, 4272, 4271
4220, 4152, 4153, 4273, 4272
4221, 4153, 4154, 4274, 4273
4222, 4154, 4155, 4275, 4274
4223, 4155, 4156, 4276, 4275
4224, 4156, 4157, 4277, 4276
4225, 4157, 4158, 4278, 4277
4226, 4158, 4159, 4279, 4278
4227, 4159, 4160, 4280, 4279
4228, 4160, 4161, 4281, 4280
4229, 4161, 4162, 4282, 4281
4230, 4162, 4163, 4283, 4282
4231, 4163, 4164, 4284, 4283
4232, 4164, 4165, 4285, 4284
4233, 4165, 4166, 4286, 4285
4234, 4166, 4167, 4287, 4286
4235, 4167, 4168, 4288, 4287
4236, 4168, 4169, 4289, 4288
4237, 4169, 4170, 4290, 4289
4238, 4170, 4171, 4291, 4290
4239, 4171, 4172, 4292, 4291
4240, 4172, 4173, 4293, 4292
4241, 4173, 4174, 4294, 4293
4242, 4174, 4175, 4295, 4294
4243, 4175, 4176, 4296, 4295
4244, 4176, 4177, 4297, 4296
4245, 4177, 4178, 4298, 4297
4246, 4178, 4179, 4299, 4298
4247, 4179, 4180, 4300, 4299
4248, 4180, 4061, 4181, 4300
4249, 4181, 4182, 4302, 4301
4250, 4182, 4183, 4303, 4302
4251, 4183, 4184, 4304, 4303
4252, 4184, 4185, 4305, 4304
4253, 4185, 4186, 4306, 4305
4254, 4186, 4187, 4307, 4306
4255, 4187, 4188, 4308, 4307
4256, 4188, 4189, 4309, 4308
4257, 4189, 4190, 4310, 4309
4258, 4190, 4191, 4311, 4310
4259, 4191, 4192, 4312, 4311
4260, 4192, 4193, 4313, 4312
4261, 4193, 4194, 4314, 4313
4262, 4194, 4195, 4315, 4314
4263, 4195, 4196, 4316, 4315
4264, 4196, 4197, 4317, 4316
4265, 4197, 4198, 4318, 4317
4266, 4198, 4199, 4319, 4318
4267, 4199, 4200, 4320, 4319
4268, 4200, 4201, 4321, 4320
4269, 4201, 4202, 4322, 4321
4270, 4202, 4203, 4323, 4322
4271, 4203, 4204, 4324, 4323
4272, 4204, 4205, 4325, 4324
4273, 4205, 4206, 4326, 4325
4274, 4206, 4207, 4327, 4326
4275, 4207, 4208, 4328, 4327
4276, 4208, 4209, 4329, 4328
4277, 4209, 4210, 4330, 4329
4278, 4210, 4211, 4331, 4330
4279, 4211, 4212, 4332, 4331
4280, 4212, 4213, 4333, 4332
4281, 4213, 4214, 4334, 4333
4282, 4214, 4215, 4335, 4334
4283, 4215, 4216, 4336, 4335
4284, 4216, 4217, 4337, 4336
4285, 4217, 4218, 4338, 4337
4286, 4218, 4219, 4339, 4338
4287, 4219, 4220, 4340, 4339
4288, 4220, 4221, 4341, 4340
4289, 4221, 4222, 4342, 4341
4290, 4222, 4223, 4343, 4342
4291, 4223, 4224, 4344, 4343
4292, 4224, 4225, 4345, 4344
4293, 4225, 4226, 4346, 4345
4294, 4226, 4227, 4347, 4346
4295, 4227, 4228, 4348, 4347
4296, 4228, 4229, 4349, 4348
4297, 4229, 4230, 4350, 4349
4298, 4230, 4231, 4351, 4350
4299, 4231, 4232, 4352, 4351
4300, 4232, 4233, 4353, 4352
4301, 4233, 4234, 4354, 4353
4302, 4234, 4235, 4355, 4354
4303, 4235, 4236, 4356, 4355
4304, 4236, 4237, 4357, 4356
4305, 4237, 4238, 4358, 4357
4306, 4238, 4239, 4359, 4358
4307, 4239, 4240, 4360, 4359
4308, 4240, 4241, 4361, 4360
4309, 4241, 4242, 4362, 4361
4310, 4242, 4243, 4363, 4362
4311, 4243, 4244, 4364, 4363
4312, 4244, 4245, 4365, 4364
4313, 4245, 4246, 4366, 4365
4314, 4246, 4247, 4367, 4366
4315, 4247, 4248, 4368, 4367
4316, 4248, 4249, 4369, 4368
4317, 4249, 4250, 4370, 4369
4318, 4250, 4251, 4371, 4370
4319, 4251, 4252, 4372, 4371
4320, 4252, 4253, 4373, 4372
4321, 4253, 4254, 4374, 4373
4322, 4254, 4255, 4375, 4374
4323, 4255, 4256, 4376, 4375
4324, 4256, 4257, 4377, 4376
4325, 4257, 4258, 4378, 4377
4326, 4258, 4259, 4379, 4378
4327, 4259, 4260, 4380, 4379
4328, 4260, 4261, 4381, 4380
4329, 4261, 4262, 4382, 4381
4330, 4262, 4263, 4383, 4382
4331, 4263, 4264, 4384, 4383
4332, 4264, 4265, 4385, 4384
4333, 4265, 4266, 4386, 4385
4334, 4266, 4267, 4387, 4386
4335, 4267, 4268, 4388, 4387
4336, 4268, 4269, 4389, 4388
4337, 4269, 4270, 4390, 4389
4338, 4270, 4271, 4391, 4390
4339, 4271, 4272, 4392, 4391
4340, 4272, 4273, 4393, 4392
4341, 4273, 4274, 4394, 4393
4342, 4274, 4275, 4395, 4394
4343, 4275, 4276, 4396, 4395
4344, 4276, 4277, 4397, 4396
4345, 4277, 4278, 4398, 4397
4346, 4278, 4279, 4399, 4398
4347, 4279, 4280, 4400, 4399
4348, 4280, 4281, 4401, 4400
4349, 4281, 4282, 4402, 4401
4350, 4282, 4283, 4403, 4402
4351, 4283, 4284, 4404, 4403
4352, 4284, 4285, 4405, 4404
4353, 4285, 4286, 4406, 4405
4354, 4286, 4287, 4407, 4406
4355, 4287, 4288, 4408, 4407
4356, 4288, 4289, 4409, 4408
4357, 4289, 4290, 4410, 4409
4358, 4290, 4291, 4411, 4410
4359, 4291, 4292, 4412, 4411
4360, 4292, 4293, 4413, 4412
4361, 4293, 4294, 4414, 4413
4362, 4294, 4295, 4415, 4414
4363, 4295, 4296, 4416, 4415
4364, 4296, 4297, 4417, 4416
4365, 4297, 4298, 4418, 4417
4366, 4298, 4299, 4419, 4418
4367, 4299, 4300, 4420, 4419
4368, 4300, 4181, 4301, 4420
4369, 4301, 4302, 4422, 4421
4370, 4302, 4303, 4423, 4422
4371, 4303, 4304, 4424, 4423
4372, 4304, 4305, 4425, 4424
4373, 4305, 4306, 4426, 4425
4374, 4306, 4307, 4427, 4426
4375, 4307, 4308, 4428, 4427
4376, 4308, 4309, 4429, 4428
4377, 4309, 4310, 4430, 4429
4378, 4310, 4311, 4431, 4430
4379, 4311, 4312, 4432, 4431
4380, 4312, 4313, 4433, 4432
4381, 4313, 4314, 4434, 4433
4382, 4314, 4315, 4435, 4434
4383, 4315, 4316, 4436, 4435
4384, 4316, 4317, 4437, 4436
4385, 4317, 4318, 4438, 4437
4386, 4318, 4319, 4439, 4438
4387, 4319, 4320, 4440, 4439
4388, 4320, 4321, 4441, 4440
4389, 4321, 4322, 4442, 4441
4390, 4322, 4323, 4443, 4442
4391, 4323, 4324, 4444, 4443
4392, 4324, 4325, 4445, 4444
4393, 4325, 4326, 4446, 4445
4394, 4326, 4327, 4447, 4446
4395, 4327, 4328, 4448, 4447
4396, 4328, 4329, 4449, 4448
4397, 4329, 4330, 4450, 4449
4398, 4330, 4331, 4451, 4450
4399, 4331, 4332, 4452, 4451
4400, 4332, 4333, 4453, 4452
4401, 4333, 4334, 4454, 4453
4402, 4334, 4335, 4455, 4454
4403, 4335, 4336, 4456, 4455
4404, 4336, 4337, 4457, 4456
4405, 4337, 4338, 4458, 4457
4406, 4338, 4339, 4459, 4458
4407, 4339, 4340, 4460, 4459
4408, 4340, 4341, 4461, 4460
4409, 4341, 4342, 4462, 4461
4410, 4342, 4343, 4463, 4462
4411, 4343, 4344, 4464, 4463
4412, 4344, 4345, 4465, 4464
4413, 4345, 4346, 4466, 4465
4414, 4346, 4347, 4467, 4466
4415, 4347, 4348, 4468, 4467
4416, 4348, 4349, 4469, 4468
4417, 4349, 4350, 4470, 4469
4418, 4350, 4351, 4471, 4470
4419, 4351, 4352, 4472, 4471
4420, 4352, 4353, 4473, 4472
4421, 4353, 4354, 4474, 4473
4422, 4354, 4355, 4475, 4474
4423, 4355, 4356, 4476, 4475
4424, 4356, 4357, 4477, 4476
4425, 4357, 4358, 4478, 4477
4426, 4358, 4359, 4479, 4478
4427, 4359, 4360, 4480, 4479
4428, 4360, 4361, 4481, 4480
4429, 4361, 4362, 4482, 4481
4430, 4362, 4363, 4483, 4482
4431, 4363, 4364, 4484, 4483
4432, 4364, 4365, 4485, 4484
4433, 4365, 4366, 4486, 4485
4434, 4366, 4367, 4487, 4486
4435, 4367, 4368, 4488, 4487
4436, 4368, 4369, 4489, 4488
4437, 4369, 4370, 4490, 4489
4438, 4370, 4371, 4491, 4490
4439, 4371, 4372, 4492, 4491
4440, 4372, 4373, 4493, 4492
4441, 4373, 4374, 4494, 4493
4442, 4374, 4375, 4495, 4494
4443, 4375, 4376, 4496, 4495
4444, 4376, 4377, 4497, 4496
4445, 4377, 4378, 4498, 4497
4446, 4378, 4379, 4499, 4498
4447, 4379, 4380, 4500, 4499
4448, 4380, 4381, 4501, 4500
4449, 4381, 4382, 4502, 4501
4450, 4382, 4383, 4503, 4502
4451, 4383, 4384, 4504, 4503
4452, 4384, 4385, 4505, 4504
4453, 4385, 4386, 4506, 4505
4454, 4386, 4387, 4507, 4506
4455, 4387, 4388, 4508, 4507
4456, 4388, 4389, 4509, 4508
4457, 4389, 4390, 4510, 4509
4458, 4390, 4391, 4511, 4510
4459, 4391, 4392, 4512, 4511
4460, 4392, 4393, 4513, 4512
4461, 4393, 4394, 4514, 4513
4462, 4394, 4395, 4515, 4514
4463, 4395, 4396, 4516, 4515
4464, 4396, 4397, 4517, 4516
4465, 4397, 4398, 4518, 4517
4466, 4398, 4399, 4519, 4518
4467, 4399, 4400, 4520, 4519
4468, 4400, 4401, 4521, 4520
4469, 4401, 4402, 4522, 4521
4470, 4402, 4403, 4523, 4522
4471, 4403, 4404, 4524, 4523
4472, 4404, 4405, 4525, 4524
4473, 4405, 4406, 4526, 4525
4474, 4406, 4407, 4527, 4526
4475, 4407, 4408, 4528, 4527
4476, 4408, 4409, 4529, 4528
4477, 4409, 4410, 4530, 4529
4478, 4410, 4411, 4531, 4530
4479, 4411, 4412, 4532, 4531
4480, 4412, 4413, 4533, 4532
4481, 4413, 4414, 4534, 4533
4482, 4414, 4415, 4535, 4534
4483, 4415, 4416, 4536, 4535
4484, 4416, 4417, 4537, 4536
4485, 4417, 4418, 4538, 4537
4486, 4418, 4419, 4539, 4538
4487, 4419, 4420, 4540, 4539
4488, 4420, 4301, 4421, 4540
4489, 4421, 4422, 4542, 4541
4490, 4422, 4423, 4543, 4542
4491, 4423, 4424, 4544, 4543
4492, 4424, 4425, 4545, 4544
4493, 4425, 4426, 4546, 4545
4494, 4426, 4427, 4547, 4546
4495, 4427, 4428, 4548, 4547
4496, 4428, 4429, 4549, 4548
4497, 4429, 4430, 4550, 4549
4498, 4430, 4431, 4551, 4550
4499, 4431, 4432, 4552, 4551
4500, 4432, 4433, 4553, 4552
4501, 4433, 4434, 4554, 4553
4502, 4434, 4435, 4555, 4554
4503, 4435, 4436, 4556, 4555
4504, 4436, 4437, 4557, 4556
4505, 4437, 4438, 4558, 4557
4506, 4438, 4439, 4559, 4558
4507, 4439, 4440, 4560, 4559
4508, 4440, 4441, 4561, 4560
4509, 4441, 4442, 4562, 4561
4510, 4442, 4443, 4563, 4562
4511, 4443, 4444, 4564, 4563
4512, 4444, 4445, 4565, 4564
4513, 4445, 4446, 4566, 4565
4514, 4446, 4447, 4567, 4566
4515, 4447, 4448, 4568, 4567
4516, 4448, 4449, 4569, 4568
4517, 4449, 4450, 4570, 4569
4518, 4450, 4451, 4571, 4570
4519, 4451, 4452, 4572, 4571
4520, 4452, 4453, 4573, 4572
4521, 4453, 4454, 4574, 4573
4522, 4454, 4455, 4575, 4574
4523, 4455, 4456, 4576, 4575
4524, 4456, 4457, 4577, 4576
4525, 4457, 4458, 4578, 4577
4526, 4458, 4459, 4579, 4578
4527, 4459, 4460, 4580, 4579
4528, 4460, 4461, 4581, 4580
4529, 4461, 4462, 4582, 4581
4530, 4462, 4463, 4583, 4582
4531, 4463, 4464, 4584, 4583
4532, 4464, 4465, 4585, 4584
4533, 4465, 4466, 4586, 4585
4534, 4466, 4467, 4587, 4586
4535, 4467, 4468, 4588, 4587
4536, 4468, 4469, 4589, 4588
4537, 4469, 4470, 4590, 4589
4538, 4470, 4471, 4591, 4590
4539, 4471, 4472, 4592, 4591
4540, 4472, 4473, 4593, 4592
4541, 4473, 4474, 4594, 4593
4542, 4474, 4475, 4595, 4594
4543, 4475, 4476, 4596, 4595
4544, 4476, 4477, 4597, 4596
4545, 4477, 4478, 4598, 4597
4546, 4478, 4479, 4599, 4598
4547, 4479, 4480, 4600, 4599
4548, 4480, 4481, 4601, 4600
4549, 4481, 4482, 4602, 4601
4550, 4482, 4483, 4603, 4602
4551, 4483, 4484, 4604, 4603
4552, 4484, 4485, 4605, 4604
4553, 4485, 4486, 4606, 4605
4554, 4486, 4487, 4607, 4606
4555, 4487, 4488, 4608, 4607
4556, 4488, 4489, 4609, 4608
4557, 4489, 4490, 4610, 4609
4558, 4490, 4491, 4611, 4610
4559, 4491, 4492, 4612, 4611
4560, 4492, 4493, 4613, 4612
4561, 4493, 4494, 4614, 4613
4562, 4494, 4495, 4615, 4614
4563, 4495, 4496, 4616, 4615
4564, 4496, 4497, 4617, 4616
4565, 4497, 4498, 4618, 4617
4566, 4498, 4499, 4619, 4618
4567, 4499, 4500, 4620, 4619
4568, 4500, 4501, 4621, 4620
4569, 4501, 4502, 4622, 4621
4570, 4502, 4503, 4623, 4622
4571, 4503, 4504, 4624, 4623
4572, 4504, 4505, 4625, 4624
4573, 4505, 4506, 4626, 4625
4574, 4506, 4507, 4627, 4626
4575, 4507, 4508, 4628, 4627
4576, 4508, 4509, 4629, 4628
4577, 4509, 4510, 4630, 4629
4578, 4510, 4511, 4631, 4630
4579, 4511, 4512, 4632, 4631
4580, 4512, 4513, 4633, 4632
4581, 4513, 4514, 4634, 4633
4582, 4514, 4515, 4635, 4634
4583, 4515, 4516, 4636, 4635
4584, 4516, 4517, 4637, 4636
4585, 4517, 4518, 4638, 4637
4586, 4518, 4519, 4639, 4638
4587, 4519, 4520, 4640, 4639
4588, 4520, 4521, 4641, 4640
4589, 4521, 4522, 4642, 4641
4590, 4522, 4523, 4643, 4642
4591, 4523, 4524, 4644, 4643
4592, 4524, 4525, 4645, 4644
4593, 4525, 4526, 4646, 4645
4594, 4526, 4527, 4647, 4646
4595, 4527, 4528, 4648, 4647
4596, 4528, 4529, 4649, 4648
4597, 4529, 4530, 4650, 4649
4598, 4530, 4531, 4651, 4650
4599, 4531, 4532, 4652, 4651
4600, 4532, 4533, 4653, 4652
4601, 4533, 4534, 4654, 4653
4602, 4534, 4535, 4655, 4654
4603, 4535, 4536, 4656, 4655
4604, 4536, 4537, 4657, 4656
4605, 4537, 4538, 4658, 4657
4606, 4538, 4539, 4659, 4658
4607, 4539, 4540, 4660, 4659
4608, 4540, 4421, 4541, 4660
4609, 4541, 4542, 4662, 4661
4610, 4542, 4543, 4663, 4662
4611, 4543, 4544, 4664, 4663
4612, 4544, 4545, 4665, 4664
4613, 4545, 4546, 4666, 4665
4614, 4546, 4547, 4667, 4666
4615, 4547, 4548, 4668, 4667
4616, 4548, 4549, 4669, 4668
4617, 4549, 4550, 4670, 4669
4618, 4550, 4551, 4671, 4670
4619, 4551, 4552, 4672, 4671
4620, 4552, 4553, 4673, 4672
4621, 4553, 4554, 4674, 4673
4622, 4554, 4555, 4675, 4674
4623, 4555, 4556, 4676, 4675
4624, 4556, 4557, 4677, 4676
4625, 4557, 4558, 4678, 4677
4626, 4558, 4559, 4679, 4678
4627, 4559, 4560, 4680, 4679
4628, 4560, 4561, 4681, 4680
4629, 4561, 4562, 4682, 4681
4630, 4562, 4563, 4683, 4682
4631, 4563, 4564, 4684, 4683
4632, 4564, 4565, 4685, 4684
4633, 4565, 4566, 4686, 4685
4634, 4566, 4567, 4687, 4686
4635, 4567, 4568, 4688, 4687
4636, 4568, 4569, 4689, 4688
4637, 4569, 4570, 4690, 4689
4638, 4570, 4571, 4691, 4690
4639, 4571, 4572, 4692, 4691
4640, 4572, 4573, 4693, 4692
4641, 4573, 4574, 4694, 4693
4642, 4574, 4575, 4695, 4694
4643, 4575, 4576, 4696, 4695
4644, 4576, 4577, 4697, 4696
4645, 4577, 4578, 4698, 4697
4646, 4578, 4579, 4699, 4698
4647, 4579, 4580, 4700, 4699
4648, 4580, 4581, 4701, 4700
4649, 4581, 4582, 4702, 4701
4650, 4582, 4583, 4703, 4702
4651, 4583, 4584, 4704, 4703
4652, 4584, 4585, 4705, 4704
4653, 4585, 4586, 4706, 4705
4654, 4586, 4587, 4707, 4706
4655, 4587, 4588, 4708, 4707
4656, 4588, 4589, 4709, 4708
4657, 4589, 4590, 4710, 4709
4658, 4590, 4591, 4711, 4710
4659, 4591, 4592, 4712, 4711
4660, 4592, 4593, 4713, 4712
4661, 4593, 4594, 4714, 4713
4662, 4594, 4595, 4715, 4714
4663, 4595, 4596, 4716, 4715
4664, 4596, 4597, 4717, 4716
4665, 4597, 4598, 4718, 4717
4666, 4598, 4599, 4719, 4718
4667, 4599, 4600, 4720, 4719
4668, 4600, 4601, 4721, 4720
4669, 4601, 4602, 4722, 4721
4670, 4602, 4603, 4723, 4722
4671, 4603, 4604, 4724, 4723
4672, 4604, 4605, 4725, 4724
4673, 4605, 4606, 4726, 4725
4674, 4606, 4607, 4727, 4726
4675, 4607, 4608, 4728, 4727
4676, 4608, 4609, 4729, 4728
4677, 4609, 4610, 4730, 4729
4678, 4610, 4611, 4731, 4730
4679, 4611, 4612, 4732, 4731
4680, 4612, 4613, 4733, 4732
4681, 4613, 4614, 4734, 4733
4682, 4614, 4615, 4735, 4734
4683, 4615, 4616, 4736, 4735
4684, 4616, 4617, 4737, 4736
4685, 4617, 4618, 4738, 4737
4686, 4618, 4619, 4739, 4738
4687, 4619, 4620, 4740, 4739
4688, 4620, 4621, 4741, 4740
4689, 4621, 4622, 4742, 4741
4690, 4622, 4623, 4743, 4742
4691, 4623, 4624, 4744, 4743
4692, 4624, 4625, 4745, 4744
4693, 4625, 4626, 4746, 4745
4694, 4626, 4627, 4747, 4746
4695, 4627, 4628, 4748, 4747
4696, 4628, 4629, 4749, 4748
4697, 4629, 4630, 4750, 4749
4698, 4630, 4631, 4751, 4750
4699, 4631, 4632, 4752, 4751
4700, 4632, 4633, 4753, 4752
4701, 4633, 4634, 4754, 4753
4702, 4634, 4635, 4755, 4754
4703, 4635, 4636, 4756, 4755
4704, 4636, 4637, 4757, 4756
4705, 4637, 4638, 4758, 4757
4706, 4638, 4639, 4759, 4758
4707, 4639, 4640, 4760, 4759
4708, 4640, 4641, 4761, 4760
4709, 4641, 4642, 4762, 4761
4710, 4642, 4643, 4763, 4762
4711, 4643, 4644, 4764, 4763
4712, 4644, 4645, 4765, 4764
4713, 4645, 4646, 4766, 4765
4714, 4646, 4647, 4767, 4766
4715, 4647, 4648, 4768, 4767
4716, 4648, 4649, 4769, 4768
4717, 4649, 4650, 4770, 4769
4718, 4650, 4651, 4771, 4770
4719, 4651, 4652, 4772, 4771
4720, 4652, 4653, 4773, 4772
4721, 4653, 4654, 4774, 4773
4722, 4654, 4655, 4775, 4774
4723, 4655, 4656, 4776, 4775
4724, 4656, 4657, 4777, 4776
4725, 4657, 4658, 4778, 4777
4726, 4658, 4659, 4779, 4778
4727, 4659, 4660, 4780, 4779
4728, 4660, 4541, 4661, 4780
4729, 4661, 4662, 4782, 4781
4730, 4662, 4663, 4783, 4782
4731, 4663, 4664, 4784, 4783
4732, 4664, 4665, 4785, 4784
4733, 4665, 4666, 4786, 4785
4734, 4666, 4667, 4787, 4786
4735, 4667, 4668, 4788, 4787
4736, 4668, 4669, 4789, 4788
4737, 4669, 4670, 4790, 4789
4738, 4670, 4671, 4791, 4790
4739, 4671, 4672, 4792, 4791
4740, 4672, 4673, 4793, 4792
4741, 4673, 4674, 4794, 4793
4742, 4674, 4675, 4795, 4794
4743, 4675, 4676, 4796, 4795
4744, 4676, 4677, 4797, 4796
4745, 4677, 4678, 4798, 4797
4746, 4678, 4679, 4799, 4798
4747, 4679, 4680, 4800, 4799
4748, 4680, 4681, 4801, 4800
4749, 4681, 4682, 4802, 4801
4750, 4682, 4683, 4803, 4802
4751, 4683, 4684, 4804, 4803
4752, 4684, 4685, 4805, 4804
4753, 4685, 4686, 4806, 4805
4754, 4686, 4687, 4807, 4806
4755, 4687, 4688, 4808, 4807
4756, 4688, 4689, 4809, 4808
4757, 4689, 4690, 4810, 4809
4758, 4690, 4691, 4811, 4810
4759, 4691, 4692, 4812, 4811
4760, 4692, 4693, 4813, 4812
4761, 4693, 4694, 4814, 4813
4762, 4694, 4695, 4815, 4814
4763, 4695, 4696, 4816, 4815
4764, 4696, 4697, 4817, 4816
4765, 4697, 4698, 4818, 4817
4766, 4698, 4699, 4819, 4818
4767, 4699, 4700, 4820, 4819
4768, 4700, 4701, 4821, 4820
4769, 4701, 4702, 4822, 4821
4770, 4702, 4703, 4823, 4822
4771, 4703, 4704, 4824, 4823
4772, 4704, 4705, 4825, 4824
4773, 4705, 4706, 4826, 4825
4774, 4706, 4707, 4827, 4826
4775, 4707, 4708, 4828, 4827
4776, 4708, 4709, 4829, 4828
4777, 4709, 4710, 4830, 4829
4778, 4710, 4711, 4831, 4830
4779, 4711, 4712, 4832, 4831
4780, 4712, 4713, 4833, 4832
4781, 4713, 4714, 4834, 4833
4782, 4714, 4715, 4835, 4834
4783, 4715, 4716, 4836, 4835
4784, 4716, 4717, 4837, 4836
4785, 4717, 4718, 4838, 4837
4786, 4718, 4719, 4839, 4838
4787, 4719, 4720, 4840, 4839
4788, 4720, 4721, 4841, 4840
4789, 4721, 4722, 4842, 4841
4790, 4722, 4723, 4843, 4842
4791, 4723, 4724, 4844, 4843
4792, 4724, 4725, 4845, 4844
4793, 4725, 4726, 4846, 4845
4794, 4726, 4727, 4847, 4846
4795, 4727, 4728, 4848, 4847
4796, 4728, 4729, 4849, 4848
4797, 4729, 4730, 4850, 4849
4798, 4730, 4731, 4851, 4850
4799, 4731, 4732, 4852, 4851
4800, 4732, 4733, 4853, 4852
4801, 4733, 4734, 4854, 4853
4802, 4734, 4735, 4855, 4854
4803, 4735, 4736, 4856, 4855
4804, 4736, 4737, 4857, 4856
4805, 4737, 4738, 4858, 4857
4806, 4738, 4739, 4859, 4858
4807, 4739, 4740, 4860, 4859
4808, 4740, 4741, 4861, 4860
4809, 4741, 4742, 4862, 4861
4810, 4742, 4743, 4863, 4862
4811, 4743, 4744, 4864, 4863
4812, 4744, 4745, 4865, 4864
4813, 4745, 4746, 4866, 4865
4814, 4746, 4747, 4867, 4866
4815, 4747, 4748, 4868, 4867
4816, 4748, 4749, 4869, 4868
4817, 4749, 4750, 4870, 4869
4818, 4750, 4751, 4871, 4870
4819, 4751, 4752, 4872, 4871
4820, 4752, 4753, 4873, 4872
4821, 4753, 4754, 4874, 4873
4822, 4754, 4755, 4875, 4874
4823, 4755, 4756, 4876, 4875
4824, 4756, 4757, 4877, 4876
4825, 4757, 4758, 4878, 4877
4826, 4758, 4759, 4879, 4878
4827, 4759, 4760, 4880, 4879
4828, 4760, 4761, 4881, 4880
4829, 4761, 4762, 4882, 4881
4830, 4762, 4763, 4883, 4882
4831, 4763, 4764, 4884, 4883
4832, 4764, 4765, 4885, 4884
4833, 4765, 4766, 4886, 4885
4834, 4766, 4767, 4887, 4886
4835, 4767, 4768, 4888, 4887
4836, 4768, 4769, 4889, 4888
4837, 4769, 4770, 4890, 4889
4838, 4770, 4771, 4891, 4890
4839, 4771, 4772, 4892, 4891
4840, 4772, 4773, 4893, 4892
4841, 4773, 4774, 4894, 4893
4842, 4774, 4775, 4895, 4894
4843, 4775, 4776, 4896, 4895
4844, 4776, 4777, 4897, 4896
4845, 4777, 4778, 4898, 4897
4846, 4778, 4779, 4899, 4898
4847, 4779, 4780, 4900, 4899
4848, 4780, 4661, 4781, 4900
4849, 4781, 4782, 4902, 4901
4850, 4782, 4783, 4903, 4902
4851, 4783, 4784, 4904, 4903
4852, 4784, 4785, 4905, 4904
4853, 4785, 4786, 4906, 4905
4854, 4786, 4787, 4907, 4906
4855, 4787, 4788, 4908, 4907
4856, 4788, 4789, 4909, 4908
4857, 4789, 4790, 4910, 4909
4858, 4790, 4791, 4911, 4910
4859, 4791, 4792, 4912, 4911
4860, 4792, 4793, 4913, 4912
4861, 4793, 4794, 4914, 4913
4862, 4794, 4795, 4915, 4914
4863, 4795, 4796, 4916, 4915
4864, 4796, 4797, 4917, 4916
4865, 4797, 4798, 4918, 4917
4866, 4798, 4799, 4919, 4918
4867, 4799, 4800, 4920, 4919
4868, 4800, 4801, 4921, 4920
4869, 4801, 4802, 4922, 4921
4870, 4802, 4803, 4923, 4922
4871, 4803, 4804, 4924, 4923
4872, 4804, 4805, 4925, 4924
4873, 4805, 4806, 4926, 4925
4874, 4806, 4807, 4927, 4926
4875, 4807, 4808, 4928, 4927
4876, 4808, 4809, 4929, 4928
4877, 4809, 4810, 4930, 4929
4878, 4810, 4811, 4931, 4930
4879, 4811, 4812, 4932, 4931
4880, 4812, 4813, 4933, 4932
4881, 4813, 4814, 4934, 4933
4882, 4814, 4815, 4935, 4934
4883, 4815, 4816, 4936, 4935
4884, 4816, 4817, 4937, 4936
4885, 4817, 4818, 4938, 4937
4886, 4818, 4819, 4939, 4938
4887, 4819, 4820, 4940, 4939
4888, 4820, 4821, 4941, 4940
4889, 4821, 4822, 4942, 4941
4890, 4822, 4823, 4943, 4942
4891, 4823, 4824, 4944, 4943
4892, 4824, 4825, 4945, 4944
4893, 4825, 4826, 4946, 4945
4894, 4826, 4827, 4947, 4946
4895, 4827, 4828, 4948, 4947
4896, 4828, 4829, 4949, 4948
4897, 4829, 4830, 4950, 4949
4898, 4830, 4831, 4951, 4950
4899, 4831, 4832, 4952, 4951
4900, 4832, 4833, 4953, 4952
4901, 4833, 4834, 4954, 4953
4902, 4834, 4835, 4955, 4954
4903, 4835, 4836, 4956, 4955
4904, 4836, 4837, 4957, 4956
4905, 4837, 4838, 4958, 4957
4906, 4838, 4839, 4959, 4958
4907, 4839, 4840, 4960, 4959
4908, 4840, 4841, 4961, 4960
4909, 4841, 4842, 4962, 4961
4910, 4842, 4843, 4963, 4962
4911, 4843, 4844, 4964, 4963
4912, 4844, 4845, 4965, 4964
4913, 4845, 4846, 4966, 4965
4914, 4846, 4847, 4967, 4966
4915, 4847, 4848, 4968, 4967
4916, 4848, 4849, 4969, 4968
4917, 4849, 4850, 4970, 4969
4918, 4850, 4851, 4971, 4970
4919, 4851, 4852, 4972, 4971
4920, 4852, 4853, 4973, 4972
4921, 4853, 4854, 4974, 4973
4922, 4854, 4855, 4975, 4974
4923, 4855, 4856, 4976, 4975
4924, 4856, 4857, 4977, 4976
4925, 4857, 4858, 4978, 4977
4926, 4858, 4859, 4979, 4978
4927, 4859, 4860, 4980, 4979
4928, 4860, 4861, 4981, 4980
4929, 4861, 4862, 4982, 4981
4930, 4862, 4863, 4983, 4982
4931, 4863, 4864, 4984, 4983
4932, 4864, 4865, 4985, 4984
4933, 4865, 4866, 4986, 4985
4934, 4866, 4867, 4987, 4986
4935, 4867, 4868, 4988, 4987
4936, 4868, 4869, 4989, 4988
4937, 4869, 4870, 4990, 4989
4938, 4870, 4871, 4991, 4990
4939, 4871, 4872, 4992, 4991
4940, 4872, 4873, 4993, 4992
4941, 4873, 4874, 4994, 4993
4942, 4874, 4875, 4995, 4994
4943, 4875, 4876, 4996, 4995
4944, 4876, 4877, 4997, 4996
4945, 4877, 4878, 4998, 4997
4946, 4878, 4879, 4999, 4998
4947, 4879, 4880, 5000, 4999
4948, 4880, 4881, 5001, 5000
4949, 4881, 4882, 5002, 5001
4950, 4882, 4883, 5003, 5002
4951, 4883, 4884, 5004, 5003
4952, 4884, 4885, 5005, 5004
4953, 4885, 4886, 5006, 5005
4954, 4886, 4887, 5007, 5006
4955, 4887, 4888, 5008, 5007
4956, 4888, 4889, 5009, 5008
4957, 4889, 4890, 5010, 5009
4958, 4890, 4891, 5011, 5010
4959, 4891, 4892, 5012, 5011
4960, 4892, 4893, 5013, 5012
4961, 4893, 4894, 5014, 5013
4962, 4894, 4895, 5015, 5014
4963, 4895, 4896, 5016, 5015
4964, 4896, 4897, 5017, 5016
4965, 4897, 4898, 5018, 5017
4966, 4898, 4899, 5019, 5018
4967, 4899, 4900, 5020, 5019
4968, 4900, 4781, 4901, 5020
4969, 4901, 4902, 5022, 5021
4970, 4902, 4903, 5023, 5022
4971, 4903, 4904, 5024, 5023
4972, 4904, 4905, 5025, 5024
4973, 4905, 4906, 5026, 5025
4974, 4906, 4907, 5027, 5026
4975, 4907, 4908, 5028, 5027
4976, 4908, 4909, 5029, 5028
4977, 4909, 4910, 5030, 5029
4978, 4910, 4911, 5031, 5030
4979, 4911, 4912, 5032, 5031
4980, 4912, 4913, 5033, 5032
4981, 4913, 4914, 5034, 5033
4982, 4914, 4915, 5035, 5034
4983, 4915, 4916, 5036, 5035
4984, 4916, 4917, 5037, 5036
4985, 4917, 4918, 5038, 5037
4986, 4918, 4919, 5039, 5038
4987, 4919, 4920, 5040, 5039
4988, 4920, 4921, 5041, 5040
4989, 4921, 4922, 5042, 5041
4990, 4922, 4923, 5043, 5042
4991, 4923, 4924, 5044, 5043
4992, 4924, 4925, 5045, 5044
4993, 4925, 4926, 5046, 5045
4994, 4926, 4927, 5047, 5046
4995, 4927, 4928, 5048, 5047
4996, 4928, 4929, 5049, 5048
4997, 4929, 4930, 5050, 5049
4998, 4930, 4931, 5051, 5050
4999, 4931, 4932, 5052, 5051
5000, 4932, 4933, 5053, 5052
5001, 4933, 4934, 5054, 5053
5002, 4934, 4935, 5055, 5054
5003, 4935, 4936, 5056, 5055
5004, 4936, 4937, 5057, 5056
5005, 4937, 4938, 5058, 5057
5006, 4938, 4939, 5059, 5058
5007, 4939, 4940, 5060, 5059
5008, 4940, 4941, 5061, 5060
5009, 4941, 4942, 5062, 5061
5010, 4942, 4943, 5063, 5062
5011, 4943, 4944, 5064, 5063
5012, 4944, 4945, 5065, 5064
5013, 4945, 4946, 5066, 5065
5014, 4946, 4947, 5067, 5066
5015, 4947, 4948, 5068, 5067
5016, 4948, 4949, 5069, 5068
5017, 4949, 4950, 5070, 5069
5018, 4950, 4951, 5071, 5070
5019, 4951, 4952, 5072, 5071
5020, 4952, 4953, 5073, 5072
5021, 4953, 4954, 5074, 5073
5022, 4954, 4955, 5075, 5074
5023, 4955, 4956, 5076, 5075
5024, 4956, 4957, 5077, 5076
5025, 4957, 4958, 5078, 5077
5026, 4958, 4959, 5079, 5078
5027, 4959, 4960, 5080, 5079
5028, 4960, 4961, 5081, 5080
5029, 4961, 4962, 5082, 5081
5030, 4962, 4963, 5083, 5082
5031, 4963, 4964, 5084, 5083
5032, 4964, 4965, 5085, 5084
5033, 4965, 4966, 5086, 5085
5034, 4966, 4967, 5087, 5086
5035, 4967, 4968, 5088, 5087
5036, 4968, 4969, 5089, 5088
5037, 4969, 4970, 5090, 5089
5038, 4970, 4971, 5091, 5090
5039, 4971, 4972, 5092, 5091
5040, 4972, 4973, 5093, 5092
5041, 4973, 4974, 5094, 5093
5042, 4974, 4975, 5095, 5094
5043, 4975, 4976, 5096, 5095
5044, 4976, 4977, 5097, 5096
5045, 4977, 4978, 5098, 5097
5046, 4978, 4979, 5099, 5098
5047, 4979, 4980, 5100, 5099
5048, 4980, 4981, 5101, 5100
5049, 4981, 4982, 5102, 5101
5050, 4982, 4983, 5103, 5102
5051, 4983, 4984, 5104, 5103
5052, 4984, 4985, 5105, 5104
5053, 4985, 4986, 5106, 5105
5054, 4986, 4987, 5107, 5106
5055, 4987, 4988, 5108, 5107
5056, 4988, 4989, 5109, 5108
5057, 4989, 4990, 5110, 5109
5058, 4990, 4991, 5111, 5110
5059, 4991, 4992, 5112, 5111
5060, 4992, 4993, 5113, 5112
5061, 4993, 4994, 5114, 5113
5062, 4994, 4995, 5115, 5114
5063, 4995, 4996, 5116, 5115
5064, 4996, 4997, 5117, 5116
5065, 4997, 4998, 5118, 5117
5066, 4998, 4999, 5119, 5118
5067, 4999, 5000, 5120, 5119
5068, 5000, 5001, 5121, 5120
5069, 5001, 5002, 5122, 5121
5070, 5002, 5003, 5123, 5122
5071, 5003, 5004, 5124, 5123
5072, 5004, 5005, 5125, 5124
5073, 5005, 5006, 5126, 5125
5074, 5006, 5007, 5127, 5126
5075, 5007, 5008, 5128, 5127
5076, 5008, 5009, 5129, 5128
5077, 5009, 5010, 5130, 5129
5078, 5010, 5011, 5131, 5130
5079, 5011, 5012, 5132, 5131
5080, 5012, 5013, 5133, 5132
5081, 5013, 5014, 5134, 5133
5082, 5014, 5015, 5135, 5134
5083, 5015, 5016, 5136, 5135
5084, 5016, 5017, 5137, 5136
5085, 5017, 5018, 5138, 5137
5086, 5018, 5019, 5139, 5138
5087, 5019, 5020, 5140, 5139
5088, 5020, 4901, 5021, 5140
5089, 5021, 5022, 5142, 5141
5090, 5022, 5023, 5143, 5142
5091, 5023, 5024, 5144, 5143
5092, 5024, 5025, 5145, 5144
5093, 5025, 5026, 5146, 5145
5094, 5026, 5027, 5147, 5146
5095, 5027, 5028, 5148, 5147
5096, 5028, 5029, 5149, 5148
5097, 5029, 5030, 5150, 5149
5098, 5030, 5031, 5151, 5150
5099, 5031, 5032, 5152, 5151
5100, 5032, 5033, 5153, 5152
5101, 5033, 5034, 5154, 5153
5102, 5034, 5035, 5155, 5154
5103, 5035, 5036, 5156, 5155
5104, 5036, 5037, 5157, 5156
5105, 5037, 5038, 5158, 5157
5106, 5038, 5039, 5159, 5158
5107, 5039, 5040, 5160, 5159
5108, 5040, 5041, 5161, 5160
5109, 5041, 5042, 5162, 5161
5110, 5042, 5043, 5163, 5162
5111, 5043, 5044, 5164, 5163
5112, 5044, 5045, 5165, 5164
5113, 5045, 5046, 5166, 5165
5114, 5046, 5047, 5167, 5166
5115, 5047, 5048, 5168, 5167
5116, 5048, 5049, 5169, 5168
5117, 5049, 5050, 5170, 5169
5118, 5050, 5051, 5171, 5170
5119, 5051, 5052, 5172, 5171
5120, 5052, 5053, 5173, 5172
5121, 5053, 5054, 5174, 5173
5122, 5054, 5055, 5175, 5174
5123, 5055, 5056, 5176, 5175
5124, 5056, 5057, 5177, 5176
5125, 5057, 5058, 5178, 5177
5126, 5058, 5059, 5179, 5178
5127, 5059, 5060, 5180, 5179
5128, 5060, 5061, 5181, 5180
5129, 5061, 5062, 5182, 5181
5130, 5062, 5063, 5183, 5182
5131, 5063, 5064, 5184, 5183
5132, 5064, 5065, 5185, 5184
5133, 5065, 5066, 5186, 5185
5134, 5066, 5067, 5187, 5186
5135, 5067, 5068, 5188, 5187
5136, 5068, 5069, 5189, 5188
5137, 5069, 5070, 5190, 5189
5138, 5070, 5071, 5191, 5190
5139, 5071, 5072, 5192, 5191
5140, 5072, 5073, 5193, 5192
5141, 5073, 5074, 5194, 5193
5142, 5074, 5075, 5195, 5194
5143, 5075, 5076, 5196, 5195
5144, 5076, 5077, 5197, 5196
5145, 5077, 5078, 5198, 5197
5146, 5078, 5079, 5199, 5198
5147, 5079, 5080, 5200, 5199
5148, 5080, 5081, 5201, 5200
5149, 5081, 5082, 5202, 5201
5150, 5082, 5083, 5203, 5202
5151, 5083, 5084, 5204, 5203
5152, 5084, 5085, 5205, 5204
5153, 5085, 5086, 5206, 5205
5154, 5086, 5087, 5207, 5206
5155, 5087, 5088, 5208, 5207
5156, 5088, 5089, 5209, 5208
5157, 5089, 5090, 5210, 5209
5158, 5090, 5091, 5211, 5210
5159, 5091, 5092, 5212, 5211
5160, 5092, 5093, 5213, 5212
5161, 5093, 5094, 5214, 5213
5162, 5094, 5095, 5215, 5214
5163, 5095, 5096, 5216, 5215
5164, 5096, 5097, 5217, 5216
5165, 5097, 5098, 5218, 5217
5166, 5098, 5099, 5219, 5218
5167, 5099, 5100, 5220, 5219
5168, 5100, 5101, 5221, 5220
5169, 5101, 5102, 5222, 5221
5170, 5102, 5103, 5223, 5222
5171, 5103, 5104, 5224, 5223
5172, 5104, 5105, 5225, 5224
5173, 5105, 5106, 5226, 5225
5174, 5106, 5107, 5227, 5226
5175, 5107, 5108, 5228, 5227
5176, 5108, 5109, 5229, 5228
5177, 5109, 5110, 5230, 5229
5178, 5110, 5111, 5231, 5230
5179, 5111, 5112, 5232, 5231
5180, 5112, 5113, 5233, 5232
5181, 5113, 5114, 5234, 5233
5182, 5114, 5115, 5235, 5234
5183, 5115, 5116, 5236, 5235
5184, 5116, 5117, 5237, 5236
5185, 5117, 5118, 5238, 5237
5186, 5118, 5119, 5239, 5238
5187, 5119, 5120, 5240, 5239
5188, 5120, 5121, 5241, 5240
5189, 5121, 5122, 5242, 5241
5190, 5122, 5123, 5243, 5242
5191, 5123, 5124, 5244, 5243
5192, 5124, 5125, 5245, 5244
5193, 5125, 5126, 5246, 5245
5194, 5126, 5127, 5247, 5246
5195, 5127, 5128, 5248, 5247
5196, 5128, 5129, 5249, 5248
5197, 5129, 5130, 5250, 5249
5198, 5130, 5131, 5251, 5250
5199, 5131, 5132, 5252, 5251
5200, 5132, 5133, 5253, 5252
5201, 5133, 5134, 5254, 5253
5202, 5134, 5135, 5255, 5254
5203, 5135, 5136, 5256, 5255
5204, 5136, 5137, 5257, 5256
5205, 5137, 5138, 5258, 5257
5206, 5138, 5139, 5259, 5258
5207, 5139, 5140, 5260, 5259
5208, 5140, 5021, 5141, 5260
5209, 5141, 5142, 5262, 5261
5210, 5142, 5143, 5263, 5262
5211, 5143, 5144, 5264, 5263
5212, 5144, 5145, 5265, 5264
5213, 5145, 5146, 5266, 5265
5214, 5146, 5147, 5267, 5266
5215, 5147, 5148, 5268, 5267
5216, 5148, 5149, 5269, 5268
5217, 5149, 5150, 5270, 5269
5218, 5150, 5151, 5271, 5270
5219, 5151, 5152, 5272, 5271
5220, 5152, 5153, 5273, 5272
5221, 5153, 5154, 5274, 5273
5222, 5154, 5155, 5275, 5274
5223, 5155, 5156, 5276, 5275
5224, 5156, 5157, 5277, 5276
5225, 5157, 5158, 5278, 5277
5226, 5158, 5159, 5279, 5278
5227, 5159, 5160, 5280, 5279
5228, 5160, 5161, 5281, 5280
5229, 5161, 5162, 5282, 5281
5230, 5162, 5163, 5283, 5282
5231, 5163, 5164, 5284, 5283
5232, 5164, 5165, 5285, 5284
5233, 5165, 5166, 5286, 5285
5234, 5166, 5167, 5287, 5286
5235, 5167, 5168, 5288, 5287
5236, 5168, 5169, 5289, 5288
5237, 5169, 5170, 5290, 5289
5238, 5170, 5171, 5291, 5290
5239, 5171, 5172, 5292, 5291
5240, 5172, 5173, 5293, 5292
5241, 5173, 5174, 5294, 5293
5242, 5174, 5175, 5295, 5294
5243, 5175, 5176, 5296, 5295
5244, 5176, 5177, 5297, 5296
5245, 5177, 5178, 5298, 5297
5246, 5178, 5179, 5299, 5298
5247, 5179, 5180, 5300, 5299
5248, 5180, 5181, 5301, 5300
5249, 5181, 5182, 5302, 5301
5250, 5182, 5183, 5303, 5302
5251, 5183, 5184, 5304, 5303
5252, 5184, 5185, 5305, 5304
5253, 5185, 5186, 5306, 5305
5254, 5186, 5187, 5307, 5306
5255, 5187, 5188, 5308, 5307
5256, 5188, 5189, 5309, 5308
5257, 5189, 5190, 5310, 5309
5258, 5190, 5191, 5311, 5310
5259, 5191, 5192, 5312, 5311
5260, 5192, 5193, 5313, 5312
5261, 5193, 5194, 5314, 5313
5262, 5194, 5195, 5315, 5314
5263, 5195, 5196, 5316, 5315
5264, 5196, 5197, 5317, 5316
5265, 5197, 5198, 5318, 5317
5266, 5198, 5199, 5319, 5318
5267, 5199, 5200, 5320, 5319
5268, 5200, 5201, 5321, 5320
5269, 5201, 5202, 5322, 5321
5270, 5202, 5203, 5323, 5322
5271, 5203, 5204, 5324, 5323
5272, 5204, 5205, 5325, 5324
5273, 5205, 5206, 5326, 5325
5274, 5206, 5207, 5327, 5326
5275, 5207, 5208, 5328, 5327
5276, 5208, 5209, 5329, 5328
5277, 5209, 5210, 5330, 5329
5278, 5210, 5211, 5331, 5330
5279, 5211, 5212, 5332, 5331
5280, 5212, 5213, 5333, 5332
5281, 5213, 5214, 5334, 5333
5282, 5214, 5215, 5335, 5334
5283, 5215, 5216, 5336, 5335
5284, 5216, 5217, 5337, 5336
5285, 5217, 5218, 5338, 5337
5286, 5218, 5219, 5339, 5338
5287, 5219, 5220, 5340, 5339
5288, 5220, 5221, 5341, 5340
5289, 5221, 5222, 5342, 5341
5290, 5222, 5223, 5343, 5342
5291, 5223, 5224, 5344, 5343
5292, 5224, 5225, 5345, 5344
5293, 5225, 5226, 5346, 5345
5294, 5226, 5227, 5347, 5346
5295, 5227, 5228, 5348, 5347
5296, 5228, 5229, 5349, 5348
5297, 5229, 5230, 5350, 5349
5298, 5230, 5231, 5351, 5350
5299, 5231, 5232, 5352, 5351
5300, 5232, 5233, 5353, 5352
5301, 5233, 5234, 5354, 5353
5302, 5234, 5235, 5355, 5354
5303, 5235, 5236, 5356, 5355
5304, 5236, 5237, 5357, 5356
5305, 5237, 5238, 5358, 5357
5306, 5238, 5239, 5359, 5358
5307, 5239, 5240, 5360, 5359
5308, 5240, 5241, 5361, 5360
5309, 5241, 5242, 5362, 5361
5310, 5242, 5243, 5363, 5362
5311, 5243, 5244, 5364, 5363
5312, 5244, 5245, 5365, 5364
5313, 5245, 5246, 5366, 5365
5314, 5246, 5247, 5367, 5366
5315, 5247, 5248, 5368, 5367
5316, 5248, 5249, 5369, 5368
5317, 5249, 5250, 5370, 5369
5318, 5250, 5251, 5371, 5370
5319, 5251, 5252, 5372, 5371
5320, 5252, 5253, 5373, 5372
5321, 5253, 5254, 5374, 5373
5322, 5254, 5255, 5375, 5374
5323, 5255, 5256, 5376, 5375
5324, 5256, 5257, 5377, 5376
5325, 5257, 5258, 5378, 5377
5326, 5258, 5259, 5379, 5378
5327, 5259, 5260, 5380, 5379
5328, 5260, 5141, 5261, 5380
5329, 5261, 5262, 5382, 5381
5330, 5262, 5263, 5383, 5382
5331, 5263, 5264, 5384, 5383
5332, 5264, 5265, 5385, 5384
5333, 5265, 5266, 5386, 5385
5334, 5266, 5267, 5387, 5386
5335, 5267, 5268, 5388, 5387
5336, 5268, 5269, 5389, 5388
5337, 5269, 5270, 5390, 5389
5338, 5270, 5271, 5391, 5390
5339, 5271, 5272, 5392, 5391
5340, 5272, 5273, 5393, 5392
5341, 5273, 5274, 5394, 5393
5342, 5274, 5275, 5395, 5394
5343, 5275, 5276, 5396, 5395
5344, 5276, 5277, 5397, 5396
5345, 5277, 5278, 5398, 5397
5346, 5278, 5279, 5399, 5398
5347, 5279, 5280, 5400, 5399
5348, 5280, 5281, 5401, 5400
5349, 5281, 5282, 5402, 5401
5350, 5282, 5283, 5403, 5402
5351, 5283, 5284, 5404, 5403
5352, 5284, 5285, 5405, 5404
5353, 5285, 5286, 5406, 5405
5354, 5286, 5287, 5407, 5406
5355, 5287, 5288, 5408, 5407
5356, 5288, 5289, 5409, 5408
5357, 5289, 5290, 5410, 5409
5358, 5290, 5291, 5411, 5410
5359, 5291, 5292, 5412, 5411
5360, 5292, 5293, 5413, 5412
5361, 5293, 5294, 5414, 5413
5362, 5294, 5295, 5415, 5414
5363, 5295, 5296, 5416, 5415
5364, 5296, 5297, 5417, 5416
5365, 5297, 5298, 5418, 5417
5366, 5298, 5299, 5419, 5418
5367, 5299, 5300, 5420, 5419
5368, 5300, 5301, 5421, 5420
5369, 5301, 5302, 5422, 5421
5370, 5302, 5303, 5423, 5422
5371, 5303, 5304, 5424, 5423
5372, 5304, 5305, 5425, 5424
5373, 5305, 5306, 5426, 5425
5374, 5306, 5307, 5427, 5426
5375, 5307, 5308, 5428, 5427
5376, 5308, 5309, 5429, 5428
5377, 5309, 5310, 5430, 5429
5378, 5310, 5311, 5431, 5430
5379, 5311, 5312, 5432, 5431
5380, 5312, 5313, 5433, 5432
5381, 5313, 5314, 5434, 5433
5382, 5314, 5315, 5435, 5434
5383, 5315, 5316, 5436, 5435
5384, 5316, 5317, 5437, 5436
5385, 5317, 5318, 5438, 5437
5386, 5318, 5319, 5439, 5438
5387, 5319, 5320, 5440, 5439
5388, 5320, 5321, 5441, 5440
5389, 5321, 5322, 5442, 5441
5390, 5322, 5323, 5443, 5442
5391, 5323, 5324, 5444, 5443
5392, 5324, 5325, 5445, 5444
5393, 5325, 5326, 5446, 5445
5394, 5326, 5327, 5447, 5446
5395, 5327, 5328, 5448, 5447
5396, 5328, 5329, 5449, 5448
5397, 5329, 5330, 5450, 5449
5398, 5330, 5331, 5451, 5450
5399, 5331, 5332, 5452, 5451
5400, 5332, 5333, 5453, 5452
5401, 5333, 5334, 5454, 5453
5402, 5334, 5335, 5455, 5454
5403, 5335, 5336, 5456, 5455
5404, 5336, 5337, 5457, 5456
5405, 5337, 5338, 5458, 5457
5406, 5338, 5339, 5459, 5458
5407, 5339, 5340, 5460, 5459
5408, 5340, 5341, 5461, 5460
5409, 5341, 5342, 5462, 5461
5410, 5342, 5343, 5463, 5462
5411, 5343, 5344, 5464, 5463
5412, 5344, 5345, 5465, 5464
5413, 5345, 5346, 5466, 5465
5414, 5346, 5347, 5467, 5466
5415, 5347, 5348, 5468, 5467
5416, 5348, 5349, 5469, 5468
5417, 5349, 5350, 5470, 5469
5418, 5350, 5351, 5471, 5470
5419, 5351, 5352, 5472, 5471
5420, 5352, 5353, 5473, 5472
5421, 5353, 5354, 5474, 5473
5422, 5354, 5355, 5475, 5474
5423, 5355, 5356, 5476, 5475
5424, 5356, 5357, 5477, 5476
5425, 5357, 5358, 5478, 5477
5426, 5358, 5359, 5479, 5478
5427, 5359, 5360, 5480, 5479
5428, 5360, 5361, 5481, 5480
5429, 5361, 5362, 5482, 5481
5430, 5362, 5363, 5483, 5482
5431, 5363, 5364, 5484, 5483
5432, 5364, 5365, 5485, 5484
5433, 5365, 5366, 5486, 5485
5434, 5366, 5367, 5487, 5486
5435, 5367, 5368, 5488, 5487
5436, 5368, 5369, 5489, 5488
5437, 5369, 5370, 5490, 5489
5438, 5370, 5371, 5491, 5490
5439, 5371, 5372, 5492, 5491
5440, 5372, 5373, 5493, 5492
5441, 5373, 5374, 5494, 5493
5442, 5374, 5375, 5495, 5494
5443, 5375, 5376, 5496, 5495
5444, 5376, 5377, 5497, 5496
5445, 5377, 5378, 5498, 5497
5446, 5378, 5379, 5499, 5498
5447, 5379, 5380, 5500, 5499
5448, 5380, 5261, 5381, 5500
5449, 5381, 5382, 5502, 5501
5450, 5382, 5383, 5503, 5502
5451, 5383, 5384, 5504, 5503
5452, 5384, 5385, 5505, 5504
5453, 5385, 5386, 5506, 5505
5454, 5386, 5387, 5507, 5506
5455, 5387, 5388, 5508, 5507
5456, 5388, 5389, 5509, 5508
5457, 5389, 5390, 5510, 5509
5458, 5390, 5391, 5511, 5510
5459, 5391, 5392, 5512, 5511
5460, 5392, 5393, 5513, 5512
5461, 5393, 5394, 5514, 5513
5462, 5394, 5395, 5515, 5514
5463, 5395, 5396, 5516, 5515
5464, 5396, 5397, 5517, 5516
5465, 5397, 5398, 5518, 5517
5466, 5398, 5399, 5519, 5518
5467, 5399, 5400, 5520, 5519
5468, 5400, 5401, 5521, 5520
5469, 5401, 5402, 5522, 5521
5470, 5402, 5403, 5523, 5522
5471, 5403, 5404, 5524, 5523
5472, 5404, 5405, 5525, 5524
5473, 5405, 5406, 5526, 5525
5474, 5406, 5407, 5527, 5526
5475, 5407, 5408, 5528, 5527
5476, 5408, 5409, 5529, 5528
5477, 5409, 5410, 5530, 5529
5478, 5410, 5411, 5531, 5530
5479, 5411, 5412, 5532, 5531
5480, 5412, 5413, 5533, 5532
5481, 5413, 5414, 5534, 5533
5482, 5414, 5415, 5535, 5534
5483, 5415, 5416, 5536, 5535
5484, 5416, 5417, 5537, 5536
5485, 5417, 5418, 5538, 5537
5486, 5418, 5419, 5539, 5538
5487, 5419, 5420, 5540, 5539
5488, 5420, 5421, 5541, 5540
5489, 5421, 5422, 5542, 5541
5490, 5422, 5423, 5543, 5542
5491, 5423, 5424, 5544, 5543
5492, 5424, 5425, 5545, 5544
5493, 5425, 5426, 5546, 5545
5494, 5426, 5427, 5547, 5546
5495, 5427, 5428, 5548, 5547
5496, 5428, 5429, 5549, 5548
5497, 5429, 5430, 5550, 5549
5498, 5430, 5431, 5551, 5550
5499, 5431, 5432, 5552, 5551
5500, 5432, 5433, 5553, 5552
5501, 5433, 5434, 5554, 5553
5502, 5434, 5435, 5555, 5554
5503, 5435, 5436, 5556, 5555
5504, 5436, 5437, 5557, 5556
5505, 5437, 5438, 5558, 5557
5506, 5438, 5439, 5559, 5558
5507, 5439, 5440, 5560, 5559
5508, 5440, 5441, 5561, 5560
5509, 5441, 5442, 5562, 5561
5510, 5442, 5443, 5563, 5562
5511, 5443, 5444, 5564, 5563
5512, 5444, 5445, 5565, 5564
5513, 5445, 5446, 5566, 5565
5514, 5446, 5447, 5567, 5566
5515, 5447, 5448, 5568, 5567
5516, 5448, 5449, 5569, 5568
5517, 5449, 5450, 5570, 5569
5518, 5450, 5451, 5571, 5570
5519, 5451, 5452, 5572, 5571
5520, 5452, 5453, 5573, 5572
5521, 5453, 5454, 5574, 5573
5522, 5454, 5455, 5575, 5574
5523, 5455, 5456, 5576, 5575
5524, 5456, 5457, 5577, 5576
5525, 5457, 5458, 5578, 5577
5526, 5458, 5459, 5579, 5578
5527, 5459, 5460, 5580, 5579
5528, 5460, 5461, 5581, 5580
5529, 5461, 5462, 5582, 5581
5530, 5462, 5463, 5583, 5582
5531, 5463, 5464, 5584, 5583
5532, 5464, 5465, 5585, 5584
5533, 5465, 5466, 5586, 5585
5534, 5466, 5467, 5587, 5586
5535, 5467, 5468, 5588, 5587
5536, 5468, 5469, 5589, 5588
5537, 5469, 5470, 5590, 5589
5538, 5470, 5471, 5591, 5590
5539, 5471, 5472, 5592, 5591
5540, 5472, 5473, 5593, 5592
5541, 5473, 5474, 5594, 5593
5542, 5474, 5475, 5595, 5594
5543, 5475, 5476, 5596, 5595
5544, 5476, 5477, 5597, 5596
5545, 5477, 5478, 5598, 5597
5546, 5478, 5479, 5599, 5598
5547, 5479, 5480, 5600, 5599
5548, 5480, 5481, 5601, 5600
5549, 5481, 5482, 5602, 5601
5550, 5482, 5483, 5603, 5602
5551, 5483, 5484, 5604, 5603
5552, 5484, 5485, 5605, 5604
5553, 5485, 5486, 5606, 5605
5554, 5486, 5487, 5607, 5606
5555, 5487, 5488, 5608, 5607
5556, 5488, 5489, 5609, 5608
5557, 5489, 5490, 5610, 5609
5558, 5490, 5491, 5611, 5610
5559, 5491, 5492, 5612, 5611
5560, 5492, 5493, 5613, 5612
5561, 5493, 5494, 5614, 5613
5562, 5494, 5495, 5615, 5614
5563, 5495, 5496, 5616, 5615
5564, 5496, 5497, 5617, 5616
5565, 5497, 5498, 5618, 5617
5566, 5498, 5499, 5619, 5618
5567, 5499, 5500, 5620, 5619
5568, 5500, 5381, 5501, 5620
5569, 5501, 5502, 5622, 5621
5570, 5502, 5503, 5623, 5622
5571, 5503, 5504, 5624, 5623
5572, 5504, 5505, 5625, 5624
5573, 5505, 5506, 5626, 5625
5574, 5506, 5507, 5627, 5626
5575, 5507, 5508, 5628, 5627
5576, 5508, 5509, 5629, 5628
5577, 5509, 5510, 5630, 5629
5578, 5510, 5511, 5631, 5630
5579, 5511, 5512, 5632, 5631
5580, 5512, 5513, 5633, 5632
5581, 5513, 5514, 5634, 5633
5582, 5514, 5515, 5635, 5634
5583, 5515, 5516, 5636, 5635
5584, 5516, 5517, 5637, 5636
5585, 5517, 5518, 5638, 5637
5586, 5518, 5519, 5639, 5638
5587, 5519, 5520, 5640, 5639
5588, 5520, 5521, 5641, 5640
5589, 5521, 5522, 5642, 5641
5590, 5522, 5523, 5643, 5642
5591, 5523, 5524, 5644, 5643
5592, 5524, 5525, 5645, 5644
5593, 5525, 5526, 5646, 5645
5594, 5526, 5527, 5647, 5646
5595, 5527, 5528, 5648, 5647
5596, 5528, 5529, 5649, 5648
5597, 5529, 5530, 5650, 5649
5598, 5530, 5531, 5651, 5650
5599, 5531, 5532, 5652, 5651
5600, 5532, 5533, 5653, 5652
5601, 5533, 5534, 5654, 5653
5602, 5534, 5535, 5655, 5654
5603, 5535, 5536, 5656, 5655
5604, 5536, 5537, 5657, 5656
5605, 5537, 5538, 5658, 5657
5606, 5538, 5539, 5659, 5658
5607, 5539, 5540, 5660, 5659
5608, 5540, 5541, 5661, 5660
5609, 5541, 5542, 5662, 5661
5610, 5542, 5543, 5663, 5662
5611, 5543, 5544, 5664, 5663
5612, 5544, 5545, 5665, 5664
5613, 5545, 5546, 5666, 5665
5614, 5546, 5547, 5667, 5666
5615, 5547, 5548, 5668, 5667
5616, 5548, 5549, 5669, 5668
5617, 5549, 5550, 5670, 5669
5618, 5550, 5551, 5671, 5670
5619, 5551, 5552, 5672, 5671
5620, 5552, 5553, 5673, 5672
5621, 5553, 5554, 5674, 5673
5622, 5554, 5555, 5675, 5674
5623, 5555, 5556, 5676, 5675
5624, 5556, 5557, 5677, 5676
5625, 5557, 5558, 5678, 5677
5626, 5558, 5559, 5679, 5678
5627, 5559, 5560, 5680, 5679
5628, 5560, 5561, 5681, 5680
5629, 5561, 5562, 5682, 5681
5630, 5562, 5563, 5683, 5682
5631, 5563, 5564, 5684, 5683
5632, 5564, 5565, 5685, 5684
5633, 5565, 5566, 5686, 5685
5634, 5566, 5567, 5687, 5686
5635, 5567, 5568, 5688, 5687
5636, 5568, 5569, 5689, 5688
5637, 5569, 5570, 5690, 5689
5638, 5570, 5571, 5691, 5690
5639, 5571, 5572, 5692, 5691
5640, 5572, 5573, 5693, 5692
5641, 5573, 5574, 5694, 5693
5642, 5574, 5575, 5695, 5694
5643, 5575, 5576, 5696, 5695
5644, 5576, 5577, 5697, 5696
5645, 5577, 5578, 5698, 5697
5646, 5578, 5579, 5699, 5698
5647, 5579, 5580, 5700, 5699
5648, 5580, 5581, 5701, 5700
5649, 5581, 5582, 5702, 5701
5650, 5582, 5583, 5703, 5702
5651, 5583, 5584, 5704, 5703
5652, 5584, 5585, 5705, 5704
5653, 5585, 5586, 5706, 5705
5654, 5586, 5587, 5707, 5706
5655, 5587, 5588, 5708, 5707
5656, 5588, 5589, 5709, 5708
5657, 5589, 5590, 5710, 5709
5658, 5590, 5591, 5711, 5710
5659, 5591, 5592, 5712, 5711
5660, 5592, 5593, 5713, 5712
5661, 5593, 5594, 5714, 5713
5662, 5594, 5595, 5715, 5714
5663, 5595, 5596, 5716, 5715
5664, 5596, 5597, 5717, 5716
5665, 5597, 5598, 5718, 5717
5666, 5598, 5599, 5719, 5718
5667, 5599, 5600, 5720, 5719
5668, 5600, 5601, 5721, 5720
5669, 5601, 5602, 5722, 5721
5670, 5602, 5603, 5723, 5722
5671, 5603, 5604, 5724, 5723
5672, 5604, 5605, 5725, 5724
5673, 5605, 5606, 5726, 5725
5674, 5606, 5607, 5727, 5726
5675, 5607, 5608, 5728, 5727
5676, 5608, 5609, 5729, 5728
5677, 5609, 5610, 5730, 5729
5678, 5610, 5611, 5731, 5730
5679, 5611, 5612, 5732, 5731
5680, 5612, 5613, 5733, 5732
5681, 5613, 5614, 5734, 5733
5682, 5614, 5615, 5735, 5734
5683, 5615, 5616, 5736, 5735
5684, 5616, 5617, 5737, 5736
5685, 5617, 5618, 5738, 5737
5686, 5618, 5619, 5739, 5738
5687, 5619, 5620, 5740, 5739
5688, 5620, 5501, 5621, 5740
5689, 5621, 5622, 5742, 5741
5690, 5622, 5623, 5743, 5742
5691, 5623, 5624, 5744, 5743
5692, 5624, 5625, 5745, 5744
5693, 5625, 5626, 5746, 5745
5694, 5626, 5627, 5747, 5746
5695, 5627, 5628, 5748, 5747
5696, 5628, 5629, 5749, 5748
5697, 5629, 5630, 5750, 5749
5698, 5630, 5631, 5751, 5750
5699, 5631, 5632, 5752, 5751
5700, 5632, 5633, 5753, 5752
5701, 5633, 5634, 5754, 5753
5702, 5634, 5635, 5755, 5754
5703, 5635, 5636, 5756, 5755
5704, 5636, 5637, 5757, 5756
5705, 5637, 5638, 5758, 5757
5706, 5638, 5639, 5759, 5758
5707, 5639, 5640, 5760, 5759
5708, 5640, 5641, 5761, 5760
5709, 5641, 5642, 5762, 5761
5710, 5642, 5643, 5763, 5762
5711, 5643, 5644, 5764, 5763
5712, 5644, 5645, 5765, 5764
5713, 5645, 5646, 5766, 5765
5714, 5646, 5647, 5767, 5766
5715, 5647, 5648, 5768, 5767
5716, 5648, 5649, 5769, 5768
5717, 5649, 5650, 5770, 5769
5718, 5650, 5651, 5771, 5770
5719, 5651, 5652, 5772, 5771
5720, 5652, 5653, 5773, 5772
5721, 5653, 5654, 5774, 5773
5722, 5654, 5655, 5775, 5774
5723, 5655, 5656, 5776, 5775
5724, 5656, 5657, 5777, 5776
5725, 5657, 5658, 5778, 5777
5726, 5658, 5659, 5779, 5778
5727, 5659, 5660, 5780, 5779
5728, 5660, 5661, 5781, 5780
5729, 5661, 5662, 5782, 5781
5730, 5662, 5663, 5783, 5782
5731, 5663, 5664, 5784, 5783
5732, 5664, 5665, 5785, 5784
5733, 5665, 5666, 5786, 5785
5734, 5666, 5667, 5787, 5786
5735, 5667, 5668, 5788, 5787
5736, 5668, 5669, 5789, 5788
5737, 5669, 5670, 5790, 5789
5738, 5670, 5671, 5791, 5790
5739, 5671, 5672, 5792, 5791
5740, 5672, 5673, 5793, 5792
5741, 5673, 5674, 5794, 5793
5742, 5674, 5675, 5795, 5794
5743, 5675, 5676, 5796, 5795
5744, 5676, 5677, 5797, 5796
5745, 5677, 5678, 5798, 5797
5746, 5678, 5679, 5799, 5798
5747, 5679, 5680, 5800, 5799
5748, 5680, 5681, 5801, 5800
5749, 5681, 5682, 5802, 5801
5750, 5682, 5683, 5803, 5802
5751, 5683, 5684, 5804, 5803
5752, 5684, 5685, 5805, 5804
5753, 5685, 5686, 5806, 5805
5754, 5686, 5687, 5807, 5806
5755, 5687, 5688, 5808, 5807
5756, 5688, 5689, 5809, 5808
5757, 5689, 5690, 5810, 5809
5758, 5690, 5691, 5811, 5810
5759, 5691, 5692, 5812, 5811
5760, 5692, 5693, 5813, 5812
5761, 5693, 5694, 5814, 5813
5762, 5694, 5695, 5815, 5814
5763, 5695, 5696, 5816, 5815
5764, 5696, 5697, 5817, 5816
5765, 5697, 5698, 5818, 5817
5766, 5698, 5699, 5819, 5818
5767, 5699, 5700, 5820, 5819
5768, 5700, 5701, 5821, 5820
5769, 5701, 5702, 5822, 5821
5770, 5702, 5703, 5823, 5822
5771, 5703, 5704, 5824, 5823
5772, 5704, 5705, 5825, 5824
5773, 5705, 5706, 5826, 5825
5774, 5706, 5707, 5827, 5826
5775, 5707, 5708, 5828, 5827
5776, 5708, 5709, 5829, 5828
5777, 5709, 5710, 5830, 5829
5778, 5710, 5711, 5831, 5830
5779, 5711, 5712, 5832, 5831
5780, 5712, 5713, 5833, 5832
5781, 5713, 5714, 5834, 5833
5782, 5714, 5715, 5835, 5834
5783, 5715, 5716, 5836, 5835
5784, 5716, 5717, 5837, 5836
5785, 5717, 5718, 5838, 5837
5786, 5718, 5719, 5839, 5838
5787, 5719, 5720, 5840, 5839
5788, 5720, 5721, 5841, 5840
5789, 5721, 5722, 5842, 5841
5790, 5722, 5723, 5843, 5842
5791, 5723, 5724, 5844, 5843
5792, 5724, 5725, 5845, 5844
5793, 5725, 5726, 5846, 5845
5794, 5726, 5727, 5847, 5846
5795, 5727, 5728, 5848, 5847
5796, 5728, 5729, 5849, 5848
5797, 5729, 5730, 5850, 5849
5798, 5730, 5731, 5851, 5850
5799, 5731, 5732, 5852, 5851
5800, 5732, 5733, 5853, 5852
5801, 5733, 5734, 5854, 5853
5802, 5734, 5735, 5855, 5854
5803, 5735, 5736, 5856, 5855
5804, 5736, 5737, 5857, 5856
5805, 5737, 5738, 5858, 5857
5806, 5738, 5739, 5859, 5858
5807, 5739, 5740, 5860, 5859
5808, 5740, 5621, 5741, 5860
5809, 5741, 5742, 5862, 5861
5810, 5742, 5743, 5863, 5862
5811, 5743, 5744, 5864, 5863
5812, 5744, 5745, 5865, 5864
5813, 5745, 5746, 5866, 5865
5814, 5746, 5747, 5867, 5866
5815, 5747, 5748, 5868, 5867
5816, 5748, 5749, 5869, 5868
5817, 5749, 5750, 5870, 5869
5818, 5750, 5751, 5871, 5870
5819, 5751, 5752, 5872, 5871
5820, 5752, 5753, 5873, 5872
5821, 5753, 5754, 5874, 5873
5822, 5754, 5755, 5875, 5874
5823, 5755, 5756, 5876, 5875
5824, 5756, 5757, 5877, 5876
5825, 5757, 5758, 5878, 5877
5826, 5758, 5759, 5879, 5878
5827, 5759, 5760, 5880, 5879
5828, 5760, 5761, 5881, 5880
5829, 5761, 5762, 5882, 5881
5830, 5762, 5763, 5883, 5882
5831, 5763, 5764, 5884, 5883
5832, 5764, 5765, 5885, 5884
5833, 5765, 5766, 5886, 5885
5834, 5766, 5767, 5887, 5886
5835, 5767, 5768, 5888, 5887
5836, 5768, 5769, 5889, 5888
5837, 5769, 5770, 5890, 5889
5838, 5770, 5771, 5891, 5890
5839, 5771, 5772, 5892, 5891
5840, 5772, 5773, 5893, 5892
5841, 5773, 5774, 5894, 5893
5842, 5774, 5775, 5895, 5894
5843, 5775, 5776, 5896, 5895
5844, 5776, 5777, 5897, 5896
5845, 5777, 5778, 5898, 5897
5846, 5778, 5779, 5899, 5898
5847, 5779, 5780, 5900, 5899
5848, 5780, 5781, 5901, 5900
5849, 5781, 5782, 5902, 5901
5850, 5782, 5783, 5903, 5902
5851, 5783, 5784, 5904, 5903
5852, 5784, 5785, 5905, 5904
5853, 5785, 5786, 5906, 5905
5854, 5786, 5787, 5907, 5906
5855, 5787, 5788, 5908, 5907
5856, 5788, 5789, 5909, 5908
5857, 5789, 5790, 5910, 5909
5858, 5790, 5791, 5911, 5910
5859, 5791, 5792, 5912, 5911
5860, 5792, 5793, 5913, 5912
5861, 5793, 5794, 5914, 5913
5862, 5794, 5795, 5915, 5914
5863, 5795, 5796, 5916, 5915
5864, 5796, 5797, 5917, 5916
5865, 5797, 5798, 5918, 5917
5866, 5798, 5799, 5919, 5918
5867, 5799, 5800, 5920, 5919
5868, 5800, 5801, 5921, 5920
5869, 5801, 5802, 5922, 5921
5870, 5802, 5803, 5923, 5922
5871, 5803, 5804, 5924, 5923
5872, 5804, 5805, 5925, 5924
5873, 5805, 5806, 5926, 5925
5874, 5806, 5807, 5927, 5926
5875, 5807, 5808, 5928, 5927
5876, 5808, 5809, 5929, 5928
5877, 5809, 5810, 5930, 5929
5878, 5810, 5811, 5931, 5930
5879, 5811, 5812, 5932, 5931
5880, 5812, 5813, 5933, 5932
5881, 5813, 5814, 5934, 5933
5882, 5814, 5815, 5935, 5934
5883, 5815, 5816, 5936, 5935
5884, 5816, 5817, 5937, 5936
5885, 5817, 5818, 5938, 5937
5886, 5818, 5819, 5939, 5938
5887, 5819, 5820, 5940, 5939
5888, 5820, 5821, 5941, 5940
5889, 5821, 5822, 5942, 5941
5890, 5822, 5823, 5943, 5942
5891, 5823, 5824, 5944, 5943
5892, 5824, 5825, 5945, 5944
5893, 5825, 5826, 5946, 5945
5894, 5826, 5827, 5947, 5946
5895, 5827, 5828, 5948, 5947
5896, 5828, 5829, 5949, 5948
5897, 5829, 5830, 5950, 5949
5898, 5830, 5831, 5951, 5950
5899, 5831, 5832, 5952, 5951
5900, 5832, 5833, 5953, 5952
5901, 5833, 5834, 5954, 5953
5902, 5834, 5835, 5955, 5954
5903, 5835, 5836, 5956, 5955
5904, 5836, 5837, 5957, 5956
5905, 5837, 5838, 5958, 5957
5906, 5838, 5839, 5959, 5958
5907, 5839, 5840, 5960, 5959
5908, 5840, 5841, 5961, 5960
5909, 5841, 5842, 5962, 5961
5910, 5842, 5843, 5963, 5962
5911, 5843, 5844, 5964, 5963
5912, 5844, 5845, 5965, 5964
5913, 5845, 5846, 5966, 5965
5914, 5846, 5847, 5967, 5966
5915, 5847, 5848, 5968, 5967
5916, 5848, 5849, 5969, 5968
5917, 5849, 5850, 5970, 5969
5918, 5850, 5851, 5971, 5970
5919, 5851, 5852, 5972, 5971
5920, 5852, 5853, 5973, 5972
5921, 5853, 5854, 5974, 5973
5922, 5854, 5855, 5975, 5974
5923, 5855, 5856, 5976, 5975
5924, 5856, 5857, 5977, 5976
5925, 5857, 5858, 5978, 5977
5926, 5858, 5859, 5979, 5978
5927, 5859, 5860, 5980, 5979
5928, 5860, 5741, 5861, 5980
5929, 5861, 5862, 5982, 5981
5930, 5862, 5863, 5983, 5982
5931, 5863, 5864, 5984, 5983
5932, 5864, 5865, 5985, 5984
5933, 5865, 5866, 5986, 5985
5934, 5866, 5867, 5987, 5986
5935, 5867, 5868, 5988, 5987
5936, 5868, 5869, 5989, 5988
5937, 5869, 5870, 5990, 5989
5938, 5870, 5871, 5991, 5990
5939, 5871, 5872, 5992, 5991
5940, 5872, 5873, 5993, 5992
5941, 5873, 5874, 5994, 5993
5942, 5874, 5875, 5995, 5994
5943, 5875, 5876, 5996, 5995
5944, 5876, 5877, 5997, 5996
5945, 5877, 5878, 5998, 5997
5946, 5878, 5879, 5999, 5998
5947, 5879, 5880, 6000, 5999
5948, 5880, 5881, 6001, 6000
5949, 5881, 5882, 6002, 6001
5950, 5882, 5883, 6003, 6002
5951, 5883, 5884, 6004, 6003
5952, 5884, 5885, 6005, 6004
5953, 5885, 5886, 6006, 6005
5954, 5886, 5887, 6007, 6006
5955, 5887, 5888, 6008, 6007
5956, 5888, 5889, 6009, 6008
5957, 5889, 5890, 6010, 6009
5958, 5890, 5891, 6011, 6010
5959, 5891, 5892, 6012, 6011
5960, 5892, 5893, 6013, 6012
5961, 5893, 5894, 6014, 6013
5962, 5894, 5895, 6015, 6014
5963, 5895, 5896, 6016, 6015
5964, 5896, 5897, 6017, 6016
5965, 5897, 5898, 6018, 6017
5966, 5898, 5899, 6019, 6018
5967, 5899, 5900, 6020, 6019
5968, 5900, 5901, 6021, 6020
5969, 5901, 5902, 6022, 6021
5970, 5902, 5903, 6023, 6022
5971, 5903, 5904, 6024, 6023
5972, 5904, 5905, 6025, 6024
5973, 5905, 5906, 6026, 6025
5974, 5906, 5907, 6027, 6026
5975, 5907, 5908, 6028, 6027
5976, 5908, 5909, 6029, 6028
5977, 5909, 5910, 6030, 6029
5978, 5910, 5911, 6031, 6030
5979, 5911, 5912, 6032, 6031
5980, 5912, 5913, 6033, 6032
5981, 5913, 5914, 6034, 6033
5982, 5914, 5915, 6035, 6034
5983, 5915, 5916, 6036, 6035
5984, 5916, 5917, 6037, 6036
5985, 5917, 5918, 6038, 6037
5986, 5918, 5919, 6039, 6038
5987, 5919, 5920, 6040, 6039
5988, 5920, 5921, 6041, 6040
5989, 5921, 5922, 6042, 6041
5990, 5922, 5923, 6043, 6042
5991, 5923, 5924, 6044, 6043
5992, 5924, 5925, 6045, 6044
5993, 5925, 5926, 6046, 6045
5994, 5926, 5927, 6047, 6046
5995, 5927, 5928, 6048, 6047
5996, 5928, 5929, 6049, 6048
5997, 5929, 5930, 6050, 6049
5998, 5930, 5931, 6051, 6050
5999, 5931, 5932, 6052, 6051
6000, 5932, 5933, 6053, 6052
6001, 5933, 5934, 6054, 6053
6002, 5934, 5935, 6055, 6054
6003, 5935, 5936, 6056, 6055
6004, 5936, 5937, 6057, 6056
6005, 5937, 5938, 6058, 6057
6006, 5938, 5939, 6059, 6058
6007, 5939, 5940, 6060, 6059
6008, 5940, 5941, 6061, 6060
6009, 5941, 5942, 6062, 6061
6010, 5942, 5943, 6063, 6062
6011, 5943, 5944, 6064, 6063
6012, 5944, 5945, 6065, 6064
6013, 5945, 5946, 6066, 6065
6014, 5946, 5947, 6067, 6066
6015, 5947, 5948, 6068, 6067
6016, 5948, 5949, 6069, 6068
6017, 5949, 5950, 6070, 6069
6018, 5950, 5951, 6071, 6070
6019, 5951, 5952, 6072, 6071
6020, 5952, 5953, 6073, 6072
6021, 5953, 5954, 6074, 6073
6022, 5954, 5955, 6075, 6074
6023, 5955, 5956, 6076, 6075
6024, 5956, 5957, 6077, 6076
6025, 5957, 5958, 6078, 6077
6026, 5958, 5959, 6079, 6078
6027, 5959, 5960, 6080, 6079
6028, 5960, 5961, 6081, 6080
6029, 5961, 5962, 6082, 6081
6030, 5962, 5963, 6083, 6082
6031, 5963, 5964, 6084, 6083
6032, 5964, 5965, 6085, 6084
6033, 5965, 5966, 6086, 6085
6034, 5966, 5967, 6087, 6086
6035, 5967, 5968, 6088, 6087
6036, 5968, 5969, 6089, 6088
6037, 5969, 5970, 6090, 6089
6038, 5970, 5971, 6091, 6090
6039, 5971, 5972, 6092, 6091
6040, 5972, 5973, 6093, 6092
6041, 5973, 5974, 6094, 6093
6042, 5974, 5975, 6095, 6094
6043, 5975, 5976, 6096, 6095
6044, 5976, 5977, 6097, 6096
6045, 5977, 5978, 6098, 6097
6046, 5978, 5979, 6099, 6098
6047, 5979, 5980, 6100, 6099
6048, 5980, 5861, 5981, 6100
6049, 5981, 5982, 6102, 6101
6050, 5982, 5983, 6103, 6102
6051, 5983, 5984, 6104, 6103
6052, 5984, 5985, 6105, 6104
6053, 5985, 5986, 6106, 6105
6054, 5986, 5987, 6107, 6106
6055, 5987, 5988, 6108, 6107
6056, 5988, 5989, 6109, 6108
6057, 5989, 5990, 6110, 6109
6058, 5990, 5991, 6111, 6110
6059, 5991, 5992, 6112, 6111
6060, 5992, 5993, 6113, 6112
6061, 5993, 5994, 6114, 6113
6062, 5994, 5995, 6115, 6114
6063, 5995, 5996, 6116, 6115
6064, 5996, 5997, 6117, 6116
6065, 5997, 5998, 6118, 6117
6066, 5998, 5999, 6119, 6118
6067, 5999, 6000, 6120, 6119
6068, 6000, 6001, 6121, 6120
6069, 6001, 6002, 6122, 6121
6070, 6002, 6003, 6123, 6122
6071, 6003, 6004, 6124, 6123
6072, 6004, 6005, 6125, 6124
6073, 6005, 6006, 6126, 6125
6074, 6006, 6007, 6127, 6126
6075, 6007, 6008, 6128, 6127
6076, 6008, 6009, 6129, 6128
6077, 6009, 6010, 6130, 6129
6078, 6010, 6011, 6131, 6130
6079, 6011, 6012, 6132, 6131
6080, 6012, 6013, 6133, 6132
6081, 6013, 6014, 6134, 6133
6082, 6014, 6015, 6135, 6134
6083, 6015, 6016, 6136, 6135
6084, 6016, 6017, 6137, 6136
6085, 6017, 6018, 6138, 6137
6086, 6018, 6019, 6139, 6138
6087, 6019, 6020, 6140, 6139
6088, 6020, 6021, 6141, 6140
6089, 6021, 6022, 6142, 6141
6090, 6022, 6023, 6143, 6142
6091, 6023, 6024, 6144, 6143
6092, 6024, 6025, 6145, 6144
6093, 6025, 6026, 6146, 6145
6094, 6026, 6027, 6147, 6146
6095, 6027, 6028, 6148, 6147
6096, 6028, 6029, 6149, 6148
6097, 6029, 6030, 6150, 6149
6098, 6030, 6031, 6151, 6150
6099, 6031, 6032, 6152, 6151
6100, 6032, 6033, 6153, 6152
6101, 6033, 6034, 6154, 6153
6102, 6034, 6035, 6155, 6154
6103, 6035, 6036, 6156, 6155
6104, 6036, 6037, 6157, 6156
6105, 6037, 6038, 6158, 6157
6106, 6038, 6039, 6159, 6158
6107, 6039, 6040, 6160, 6159
6108, 6040, 6041, 6161, 6160
6109, 6041, 6042, 6162, 6161
6110, 6042, 6043, 6163, 6162
6111, 6043, 6044, 6164, 6163
6112, 6044, 6045, 6165, 6164
6113, 6045, 6046, 6166, 6165
6114, 6046, 6047, 6167, 6166
6115, 6047, 6048, 6168, 6167
6116, 6048, 6049, 6169, 6168
6117, 6049, 6050, 6170, 6169
6118, 6050, 6051, 6171, 6170
6119, 6051, 6052, 6172, 6171
6120, 6052, 6053, 6173, 6172
6121, 6053, 6054, 6174, 6173
6122, 6054, 6055, 6175, 6174
6123, 6055, 6056, 6176, 6175
6124, 6056, 6057, 6177, 6176
6125, 6057, 6058, 6178, 6177
6126, 6058, 6059, 6179, 6178
6127, 6059, 6060, 6180, 6179
6128, 6060, 6061, 6181, 6180
6129, 6061, 6062, 6182, 6181
6130, 6062, 6063, 6183, 6182
6131, 6063, 6064, 6184, 6183
6132, 6064, 6065, 6185, 6184
6133, 6065, 6066, 6186, 6185
6134, 6066, 6067, 6187, 6186
6135, 6067, 6068, 6188, 6187
6136, 6068, 6069, 6189, 6188
6137, 6069, 6070, 6190, 6189
6138, 6070, 6071, 6191, 6190
6139, 6071, 6072, 6192, 6191
6140, 6072, 6073, 6193, 6192
6141, 6073, 6074, 6194, 6193
6142, 6074, 6075, 6195, 6194
6143, 6075, 6076, 6196, 6195
6144, 6076, 6077, 6197, 6196
6145, 6077, 6078, 6198, 6197
6146, 6078, 6079, 6199, 6198
6147, 6079, 6080, 6200, 6199
6148, 6080, 6081, 6201, 6200
6149, 6081, 6082, 6202, 6201
6150, 6082, 6083, 6203, 6202
6151, 6083, 6084, 6204, 6203
6152, 6084, 6085, 6205, 6204
6153, 6085, 6086, 6206, 6205
6154, 6086, 6087, 6207, 6206
6155, 6087, 6088, 6208, 6207
6156, 6088, 6089, 6209, 6208
6157, 6089, 6090, 6210, 6209
6158, 6090, 6091, 6211, 6210
6159, 6091, 6092, 6212, 6211
6160, 6092, 6093, 6213, 6212
6161, 6093, 6094, 6214, 6213
6162, 6094, 6095, 6215, 6214
6163, 6095, 6096, 6216, 6215
6164, 6096, 6097, 6217, 6216
6165, 6097, 6098, 6218, 6217
6166, 6098, 6099, 6219, 6218
6167, 6099, 6100, 6220, 6219
6168, 6100, 5981, 6101, 6220
6169, 6101, 6102, 6222, 6221
6170, 6102, 6103, 6223, 6222
6171, 6103, 6104, 6224, 6223
6172, 6104, 6105, 6225, 6224
6173, 6105, 6106, 6226, 6225
6174, 6106, 6107, 6227, 6226
6175, 6107, 6108, 6228, 6227
6176, 6108, 6109, 6229, 6228
6177, 6109, 6110, 6230, 6229
6178, 6110, 6111, 6231, 6230
6179, 6111, 6112, 6232, 6231
6180, 6112, 6113, 6233, 6232
6181, 6113, 6114, 6234, 6233
6182, 6114, 6115, 6235, 6234
6183, 6115, 6116, 6236, 6235
6184, 6116, 6117, 6237, 6236
6185, 6117, 6118, 6238, 6237
6186, 6118, 6119, 6239, 6238
6187, 6119, 6120, 6240, 6239
6188, 6120, 6121, 6241, 6240
6189, 6121, 6122, 6242, 6241
6190, 6122, 6123, 6243, 6242
6191, 6123, 6124, 6244, 6243
6192, 6124, 6125, 6245, 6244
6193, 6125, 6126, 6246, 6245
6194, 6126, 6127, 6247, 6246
6195, 6127, 6128, 6248, 6247
6196, 6128, 6129, 6249, 6248
6197, 6129, 6130, 6250, 6249
6198, 6130, 6131, 6251, 6250
6199, 6131, 6132, 6252, 6251
6200, 6132, 6133, 6253, 6252
6201, 6133, 6134, 6254, 6253
6202, 6134, 6135, 6255, 6254
6203, 6135, 6136, 6256, 6255
6204, 6136, 6137, 6257, 6256
6205, 6137, 6138, 6258, 6257
6206, 6138, 6139, 6259, 6258
6207, 6139, 6140, 6260, 6259
6208, 6140, 6141, 6261, 6260
6209, 6141, 6142, 6262, 6261
6210, 6142, 6143, 6263, 6262
6211, 6143, 6144, 6264, 6263
6212, 6144, 6145, 6265, 6264
6213, 6145, 6146, 6266, 6265
6214, 6146, 6147, 6267, 6266
6215, 6147, 6148, 6268, 6267
6216, 6148, 6149, 6269, 6268
6217, 6149, 6150, 6270, 6269
6218, 6150, 6151, 6271, 6270
6219, 6151, 6152, 6272, 6271
6220, 6152, 6153, 6273, 6272
6221, 6153, 6154, 6274, 6273
6222, 6154, 6155, 6275, 6274
6223, 6155, 6156, 6276, 6275
6224, 6156, 6157, 6277, 6276
6225, 6157, 6158, 6278, 6277
6226, 6158, 6159, 6279, 6278
6227, 6159, 6160, 6280, 6279
6228, 6160, 6161, 6281, 6280
6229, 6161, 6162, 6282, 6281
6230, 6162, 6163, 6283, 6282
6231, 6163, 6164, 6284, 6283
6232, 6164, 6165, 6285, 6284
6233, 6165, 6166, 6286, 6285
6234, 6166, 6167, 6287, 6286
6235, 6167, 6168, 6288, 6287
6236, 6168, 6169, 6289, 6288
6237, 6169, 6170, 6290, 6289
6238, 6170, 6171, 6291, 6290
6239, 6171, 6172, 6292, 6291
6240, 6172, 6173, 6293, 6292
6241, 6173, 6174, 6294, 6293
6242, 6174, 6175, 6295, 6294
6243, 6175, 6176, 6296, 6295
6244, 6176, 6177, 6297, 6296
6245, 6177, 6178, 6298, 6297
6246, 6178, 6179, 6299, 6298
6247, 6179, 6180, 6300, 6299
6248, 6180, 6181, 6301, 6300
6249, 6181, 6182, 6302, 6301
6250, 6182, 6183, 6303, 6302
6251, 6183, 6184, 6304, 6303
6252, 6184, 6185, 6305, 6304
6253, 6185, 6186, 6306, 6305
6254, 6186, 6187, 6307, 6306
6255, 6187, 6188, 6308, 6307
6256, 6188, 6189, 6309, 6308
6257, 6189, 6190, 6310, 6309
6258, 6190, 6191, 6311, 6310
6259, 6191, 6192, 6312, 6311
6260, 6192, 6193, 6313, 6312
6261, 6193, 6194, 6314, 6313
6262, 6194, 6195, 6315, 6314
6263, 6195, 6196, 6316, 6315
6264, 6196, 6197, 6317, 6316
6265, 6197, 6198, 6318, 6317
6266, 6198, 6199, 6319, 6318
6267, 6199, 6200, 6320, 6319
6268, 6200, 6201, 6321, 6320
6269, 6201, 6202, 6322, 6321
6270, 6202, 6203, 6323, 6322
6271, 6203, 6204, 6324, 6323
6272, 6204, 6205, 6325, 6324
6273, 6205, 6206, 6326, 6325
6274, 6206, 6207, 6327, 6326
6275, 6207, 6208, 6328, 6327
6276, 6208, 6209, 6329, 6328
6277, 6209, 6210, 6330, 6329
6278, 6210, 6211, 6331, 6330
6279, 6211, 6212, 6332, 6331
6280, 6212, 6213, 6333, 6332
6281, 6213, 6214, 6334, 6333
6282, 6214, 6215, 6335, 6334
6283, 6215, 6216, 6336, 6335
6284, 6216, 6217, 6337, 6336
6285, 6217, 6218, 6338, 6337
6286, 6218, 6219, 6339, 6338
6287, 6219, 6220, 6340, 6339
6288, 6220, 6101, 6221, 6340
6289, 6221, 6222, 6342, 6341
6290, 6222, 6223, 6343, 6342
6291, 6223, 6224, 6344, 6343
6292, 6224, 6225, 6345, 6344
6293, 6225, 6226, 6346, 6345
6294, 6226, 6227, 6347, 6346
6295, 6227, 6228, 6348, 6347
6296, 6228, 6229, 6349, 6348
6297, 6229, 6230, 6350, 6349
6298, 6230, 6231, 6351, 6350
6299, 6231, 6232, 6352, 6351
6300, 6232, 6233, 6353, 6352
6301, 6233, 6234, 6354, 6353
6302, 6234, 6235, 6355, 6354
6303, 6235, 6236, 6356, 6355
6304, 6236, 6237, 6357, 6356
6305, 6237, 6238, 6358, 6357
6306, 6238, 6239, 6359, 6358
6307, 6239, 6240, 6360, 6359
6308, 6240, 6241, 6361, 6360
6309, 6241, 6242, 6362, 6361
6310, 6242, 6243, 6363, 6362
6311, 6243, 6244, 6364, 6363
6312, 6244, 6245, 6365, 6364
6313, 6245, 6246, 6366, 6365
6314, 6246, 6247, 6367, 6366
6315, 6247, 6248, 6368, 6367
6316, 6248, 6249, 6369, 6368
6317, 6249, 6250, 6370, 6369
6318, 6250, 6251, 6371, 6370
6319, 6251, 6252, 6372, 6371
6320, 6252, 6253, 6373, 6372
6321, 6253, 6254, 6374, 6373
6322, 6254, 6255, 6375, 6374
6323, 6255, 6256, 6376, 6375
6324, 6256, 6257, 6377, 6376
6325, 6257, 6258, 6378, 6377
6326, 6258, 6259, 6379, 6378
6327, 6259, 6260, 6380, 6379
6328, 6260, 6261, 6381, 6380
6329, 6261, 6262, 6382, 6381
6330, 6262, 6263, 6383, 6382
6331, 6263, 6264, 6384, 6383
6332, 6264, 6265, 6385, 6384
6333, 6265, 6266, 6386, 6385
6334, 6266, 6267, 6387, 6386
6335, 6267, 6268, 6388, 6387
6336, 6268, 6269, 6389, 6388
6337, 6269, 6270, 6390, 6389
6338, 6270, 6271, 6391, 6390
6339, 6271, 6272, 6392, 6391
6340, 6272, 6273, 6393, 6392
6341, 6273, 6274, 6394, 6393
6342, 6274, 6275, 6395, 6394
6343, 6275, 6276, 6396, 6395
6344, 6276, 6277, 6397, 6396
6345, 6277, 6278, 6398, 6397
6346, 6278, 6279, 6399, 6398
6347, 6279, 6280, 6400, 6399
6348, 6280, 6281, 6401, 6400
6349, 6281, 6282, 6402, 6401
6350, 6282, 6283, 6403, 6402
6351, 6283, 6284, 6404, 6403
6352, 6284, 6285, 6405, 6404
6353, 6285, 6286, 6406, 6405
6354, 6286, 6287, 6407, 6406
6355, 6287, 6288, 6408, 6407
6356, 6288, 6289, 6409, 6408
6357, 6289, 6290, 6410, 6409
6358, 6290, 6291, 6411, 6410
6359, 6291, 6292, 6412, 6411
6360, 6292, 6293, 6413, 6412
6361, 6293, 6294, 6414, 6413
6362, 6294, 6295, 6415, 6414
6363, 6295, 6296, 6416, 6415
6364, 6296, 6297, 6417, 6416
6365, 6297, 6298, 6418, 6417
6366, 6298, 6299, 6419, 6418
6367, 6299, 6300, 6420, 6419
6368, 6300, 6301, 6421, 6420
6369, 6301, 6302, 6422, 6421
6370, 6302, 6303, 6423, 6422
6371, 6303, 6304, 6424, 6423
6372, 6304, 6305, 6425, 6424
6373, 6305, 6306, 6426, 6425
6374, 6306, 6307, 6427, 6426
6375, 6307, 6308, 6428, 6427
6376, 6308, 6309, 6429, 6428
6377, 6309, 6310, 6430, 6429
6378, 6310, 6311, 6431, 6430
6379, 6311, 6312, 6432, 6431
6380, 6312, 6313, 6433, 6432
6381, 6313, 6314, 6434, 6433
6382, 6314, 6315, 6435, 6434
6383, 6315, 6316, 6436, 6435
6384, 6316, 6317, 6437, 6436
6385, 6317, 6318, 6438, 6437
6386, 6318, 6319, 6439, 6438
6387, 6319, 6320, 6440, 6439
6388, 6320, 6321, 6441, 6440
6389, 6321, 6322, 6442, 6441
6390, 6322, 6323, 6443, 6442
6391, 6323, 6324, 6444, 6443
6392, 6324, 6325, 6445, 6444
6393, 6325, 6326, 6446, 6445
6394, 6326, 6327, 6447, 6446
6395, 6327, 6328, 6448, 6447
6396, 6328, 6329, 6449, 6448
6397, 6329, 6330, 6450, 6449
6398, 6330, 6331, 6451, 6450
6399, 6331, 6332, 6452, 6451
6400, 6332, 6333, 6453, 6452
6401, 6333, 6334, 6454, 6453
6402, 6334, 6335, 6455, 6454
6403, 6335, 6336, 6456, 6455
6404, 6336, 6337, 6457, 6456
6405, 6337, 6338, 6458, 6457
6406, 6338, 6339, 6459, 6458
6407, 6339, 6340, 6460, 6459
6408, 6340, 6221, 6341, 6460
6409, 6341, 6342, 6462, 6461
6410, 6342, 6343, 6463, 6462
6411, 6343, 6344, 6464, 6463
6412, 6344, 6345, 6465, 6464
6413, 6345, 6346, 6466, 6465
6414, 6346, 6347, 6467, 6466
6415, 6347, 6348, 6468, 6467
6416, 6348, 6349, 6469, 6468
6417, 6349, 6350, 6470, 6469
6418, 6350, 6351, 6471, 6470
6419, 6351, 6352, 6472, 6471
6420, 6352, 6353, 6473, 6472
6421, 6353, 6354, 6474, 6473
6422, 6354, 6355, 6475, 6474
6423, 6355, 6356, 6476, 6475
6424, 6356, 6357, 6477, 6476
6425, 6357, 6358, 6478, 6477
6426, 6358, 6359, 6479, 6478
6427, 6359, 6360, 6480, 6479
6428, 6360, 6361, 6481, 6480
6429, 6361, 6362, 6482, 6481
6430, 6362, 6363, 6483, 6482
6431, 6363, 6364, 6484, 6483
6432, 6364, 6365, 6485, 6484
6433, 6365, 6366, 6486, 6485
6434, 6366, 6367, 6487, 6486
6435, 6367, 6368, 6488, 6487
6436, 6368, 6369, 6489, 6488
6437, 6369, 6370, 6490, 6489
6438, 6370, 6371, 6491, 6490
6439, 6371, 6372, 6492, 6491
6440, 6372, 6373, 6493, 6492
6441, 6373, 6374, 6494, 6493
6442, 6374, 6375, 6495, 6494
6443, 6375, 6376, 6496, 6495
6444, 6376, 6377, 6497, 6496
6445, 6377, 6378, 6498, 6497
6446, 6378, 6379, 6499, 6498
6447, 6379, 6380, 6500, 6499
6448, 6380, 6381, 6501, 6500
6449, 6381, 6382, 6502, 6501
6450, 6382, 6383, 6503, 6502
6451, 6383, 6384, 6504, 6503
6452, 6384, 6385, 6505, 6504
6453, 6385, 6386, 6506, 6505
6454, 6386, 6387, 6507, 6506
6455, 6387, 6388, 6508, 6507
6456, 6388, 6389, 6509, 6508
6457, 6389, 6390, 6510, 6509
6458, 6390, 6391, 6511, 6510
6459, 6391, 6392, 6512, 6511
6460, 6392, 6393, 6513, 6512
6461, 6393, 6394, 6514, 6513
6462, 6394, 6395, 6515, 6514
6463, 6395, 6396, 6516, 6515
6464, 6396, 6397, 6517, 6516
6465, 6397, 6398, 6518, 6517
6466, 6398, 6399, 6519, 6518
6467, 6399, 6400, 6520, 6519
6468, 6400, 6401, 6521, 6520
6469, 6401, 6402, 6522, 6521
6470, 6402, 6403, 6523, 6522
6471, 6403, 6404, 6524, 6523
6472, 6404, 6405, 6525, 6524
6473, 6405, 6406, 6526, 6525
6474, 6406, 6407, 6527, 6526
6475, 6407, 6408, 6528, 6527
6476, 6408, 6409, 6529, 6528
6477, 6409, 6410, 6530, 6529
6478, 6410, 6411, 6531, 6530
6479, 6411, 6412, 6532, 6531
6480, 6412, 6413, 6533, 6532
6481, 6413, 6414, 6534, 6533
6482, 6414, 6415, 6535, 6534
6483, 6415, 6416, 6536, 6535
6484, 6416, 6417, 6537, 6536
6485, 6417, 6418, 6538, 6537
6486, 6418, 6419, 6539, 6538
6487, 6419, 6420, 6540, 6539
6488, 6420, 6421, 6541, 6540
6489, 6421, 6422, 6542, 6541
6490, 6422, 6423, 6543, 6542
6491, 6423, 6424, 6544, 6543
6492, 6424, 6425, 6545, 6544
6493, 6425, 6426, 6546, 6545
6494, 6426, 6427, 6547, 6546
6495, 6427, 6428, 6548, 6547
6496, 6428, 6429, 6549, 6548
6497, 6429, 6430, 6550, 6549
6498, 6430, 6431, 6551, 6550
6499, 6431, 6432, 6552, 6551
6500, 6432, 6433, 6553, 6552
6501, 6433, 6434, 6554, 6553
6502, 6434, 6435, 6555, 6554
6503, 6435, 6436, 6556, 6555
6504, 6436, 6437, 6557, 6556
6505, 6437, 6438, 6558, 6557
6506, 6438, 6439, 6559, 6558
6507, 6439, 6440, 6560, 6559
6508, 6440, 6441, 6561, 6560
6509, 6441, 6442, 6562, 6561
6510, 6442, 6443, 6563, 6562
6511, 6443, 6444, 6564, 6563
6512, 6444, 6445, 6565, 6564
6513, 6445, 6446, 6566, 6565
6514, 6446, 6447, 6567, 6566
6515, 6447, 6448, 6568, 6567
6516, 6448, 6449, 6569, 6568
6517, 6449, 6450, 6570, 6569
6518, 6450, 6451, 6571, 6570
6519, 6451, 6452, 6572, 6571
6520, 6452, 6453, 6573, 6572
6521, 6453, 6454, 6574, 6573
6522, 6454, 6455, 6575, 6574
6523, 6455, 6456, 6576, 6575
6524, 6456, 6457, 6577, 6576
6525, 6457, 6458, 6578, 6577
6526, 6458, 6459, 6579, 6578
6527, 6459, 6460, 6580, 6579
6528, 6460, 6341, 6461, 6580
6529, 6461, 6462, 6582, 6581
6530, 6462, 6463, 6583, 6582
6531, 6463, 6464, 6584, 6583
6532, 6464, 6465, 6585, 6584
6533, 6465, 6466, 6586, 6585
6534, 6466, 6467, 6587, 6586
6535, 6467, 6468, 6588, 6587
6536, 6468, 6469, 6589, 6588
6537, 6469, 6470, 6590, 6589
6538, 6470, 6471, 6591, 6590
6539, 6471, 6472, 6592, 6591
6540, 6472, 6473, 6593, 6592
6541, 6473, 6474, 6594, 6593
6542, 6474, 6475, 6595, 6594
6543, 6475, 6476, 6596, 6595
6544, 6476, 6477, 6597, 6596
6545, 6477, 6478, 6598, 6597
6546, 6478, 6479, 6599, 6598
6547, 6479, 6480, 6600, 6599
6548, 6480, 6481, 6601, 6600
6549, 6481, 6482, 6602, 6601
6550, 6482, 6483, 6603, 6602
6551, 6483, 6484, 6604, 6603
6552, 6484, 6485, 6605, 6604
6553, 6485, 6486, 6606, 6605
6554, 6486, 6487, 6607, 6606
6555, 6487, 6488, 6608, 6607
6556, 6488, 6489, 6609, 6608
6557, 6489, 6490, 6610, 6609
6558, 6490, 6491, 6611, 6610
6559, 6491, 6492, 6612, 6611
6560, 6492, 6493, 6613, 6612
6561, 6493, 6494, 6614, 6613
6562, 6494, 6495, 6615, 6614
6563, 6495, 6496, 6616, 6615
6564, 6496, 6497, 6617, 6616
6565, 6497, 6498, 6618, 6617
6566, 6498, 6499, 6619, 6618
6567, 6499, 6500, 6620, 6619
6568, 6500, 6501, 6621, 6620
6569, 6501, 6502, 6622, 6621
6570, 6502, 6503, 6623, 6622
6571, 6503, 6504, 6624, 6623
6572, 6504, 6505, 6625, 6624
6573, 6505, 6506, 6626, 6625
6574, 6506, 6507, 6627, 6626
6575, 6507, 6508, 6628, 6627
6576, 6508, 6509, 6629, 6628
6577, 6509, 6510, 6630, 6629
6578, 6510, 6511, 6631, 6630
6579, 6511, 6512, 6632, 6631
6580, 6512, 6513, 6633, 6632
6581, 6513, 6514, 6634, 6633
6582, 6514, 6515, 6635, 6634
6583, 6515, 6516, 6636, 6635
6584, 6516, 6517, 6637, 6636
6585, 6517, 6518, 6638, 6637
6586, 6518, 6519, 6639, 6638
6587, 6519, 6520, 6640, 6639
6588, 6520, 6521, 6641, 6640
6589, 6521, 6522, 6642, 6641
6590, 6522, 6523, 6643, 6642
6591, 6523, 6524, 6644, 6643
6592, 6524, 6525, 6645, 6644
6593, 6525, 6526, 6646, 6645
6594, 6526, 6527, 6647, 6646
6595, 6527, 6528, 6648, 6647
6596, 6528, 6529, 6649, 6648
6597, 6529, 6530, 6650, 6649
6598, 6530, 6531, 6651, 6650
6599, 6531, 6532, 6652, 6651
6600, 6532, 6533, 6653, 6652
6601, 6533, 6534, 6654, 6653
6602, 6534, 6535, 6655, 6654
6603, 6535, 6536, 6656, 6655
6604, 6536, 6537, 6657, 6656
6605, 6537, 6538, 6658, 6657
6606, 6538, 6539, 6659, 6658
6607, 6539, 6540, 6660, 6659
6608, 6540, 6541, 6661, 6660
6609, 6541, 6542, 6662, 6661
6610, 6542, 6543, 6663, 6662
6611, 6543, 6544, 6664, 6663
6612, 6544, 6545, 6665, 6664
6613, 6545, 6546, 6666, 6665
6614, 6546, 6547, 6667, 6666
6615, 6547, 6548, 6668, 6667
6616, 6548, 6549, 6669, 6668
6617, 6549, 6550, 6670, 6669
6618, 6550, 6551, 6671, 6670
6619, 6551, 6552, 6672, 6671
6620, 6552, 6553, 6673, 6672
6621, 6553, 6554, 6674, 6673
6622, 6554, 6555, 6675, 6674
6623, 6555, 6556, 6676, 6675
6624, 6556, 6557, 6677, 6676
6625, 6557, 6558, 6678, 6677
6626, 6558, 6559, 6679, 6678
6627, 6559, 6560, 6680, 6679
6628, 6560, 6561, 6681, 6680
6629, 6561, 6562, 6682, 6681
6630, 6562, 6563, 6683, 6682
6631, 6563, 6564, 6684, 6683
6632, 6564, 6565, 6685, 6684
6633, 6565, 6566, 6686, 6685
6634, 6566, 6567, 6687, 6686
6635, 6567, 6568, 6688, 6687
6636, 6568, 6569, 6689, 6688
6637, 6569, 6570, 6690, 6689
6638, 6570, 6571, 6691, 6690
6639, 6571, 6572, 6692, 6691
6640, 6572, 6573, 6693, 6692
6641, 6573, 6574, 6694, 6693
6642, 6574, 6575, 6695, 6694
6643, 6575, 6576, 6696, 6695
6644, 6576, 6577, 6697, 6696
6645, 6577, 6578, 6698, 6697
6646, 6578, 6579, 6699, 6698
6647, 6579, 6580, 6700, 6699
6648, 6580, 6461, 6581, 6700
6649, 6581, 6582, 6702, 6701
6650, 6582, 6583, 6703, 6702
6651, 6583, 6584, 6704, 6703
6652, 6584, 6585, 6705, 6704
6653, 6585, 6586, 6706, 6705
6654, 6586, 6587, 6707, 6706
6655, 6587, 6588, 6708, 6707
6656, 6588, 6589, 6709, 6708
6657, 6589, 6590, 6710, 6709
6658, 6590, 6591, 6711, 6710
6659, 6591, 6592, 6712, 6711
6660, 6592, 6593, 6713, 6712
6661, 6593, 6594, 6714, 6713
6662, 6594, 6595, 6715, 6714
6663, 6595, 6596, 6716, 6715
6664, 6596, 6597, 6717, 6716
6665, 6597, 6598, 6718, 6717
6666, 6598, 6599, 6719, 6718
6667, 6599, 6600, 6720, 6719
6668, 6600, 6601, 6721, 6720
6669, 6601, 6602, 6722, 6721
6670, 6602, 6603, 6723, 6722
6671, 6603, 6604, 6724, 6723
6672, 6604, 6605, 6725, 6724
6673, 6605, 6606, 6726, 6725
6674, 6606, 6607, 6727, 6726
6675, 6607, 6608, 6728, 6727
6676, 6608, 6609, 6729, 6728
6677, 6609, 6610, 6730, 6729
6678, 6610, 6611, 6731, 6730
6679, 6611, 6612, 6732, 6731
6680, 6612, 6613, 6733, 6732
6681, 6613, 6614, 6734, 6733
6682, 6614, 6615, 6735, 6734
6683, 6615, 6616, 6736, 6735
6684, 6616, 6617, 6737, 6736
6685, 6617, 6618, 6738, 6737
6686, 6618, 6619, 6739, 6738
6687, 6619, 6620, 6740, 6739
6688, 6620, 6621, 6741, 6740
6689, 6621, 6622, 6742, 6741
6690, 6622, 6623, 6743, 6742
6691, 6623, 6624, 6744, 6743
6692, 6624, 6625, 6745, 6744
6693, 6625, 6626, 6746, 6745
6694, 6626, 6627, 6747, 6746
6695, 6627, 6628, 6748, 6747
6696, 6628, 6629, 6749, 6748
6697, 6629, 6630, 6750, 6749
6698, 6630, 6631, 6751, 6750
6699, 6631, 6632, 6752, 6751
6700, 6632, 6633, 6753, 6752
6701, 6633, 6634, 6754, 6753
6702, 6634, 6635, 6755, 6754
6703, 6635, 6636, 6756, 6755
6704, 6636, 6637, 6757, 6756
6705, 6637, 6638, 6758, 6757
6706, 6638, 6639, 6759, 6758
6707, 6639, 6640, 6760, 6759
6708, 6640, 6641, 6761, 6760
6709, 6641, 6642, 6762, 6761
6710, 6642, 6643, 6763, 6762
6711, 6643, 6644, 6764, 6763
6712, 6644, 6645, 6765, 6764
6713, 6645, 6646, 6766, 6765
6714, 6646, 6647, 6767, 6766
6715, 6647, 6648, 6768, 6767
6716, 6648, 6649, 6769, 6768
6717, 6649, 6650, 6770, 6769
6718, 6650, 6651, 6771, 6770
6719, 6651, 6652, 6772, 6771
6720, 6652, 6653, 6773, 6772
6721, 6653, 6654, 6774, 6773
6722, 6654, 6655, 6775, 6774
6723, 6655, 6656, 6776, 6775
6724, 6656, 6657, 6777, 6776
6725, 6657, 6658, 6778, 6777
6726, 6658, 6659, 6779, 6778
6727, 6659, 6660, 6780, 6779
6728, 6660, 6661, 6781, 6780
6729, 6661, 6662, 6782, 6781
6730, 6662, 6663, 6783, 6782
6731, 6663, 6664, 6784, 6783
6732, 6664, 6665, 6785, 6784
6733, 6665, 6666, 6786, 6785
6734, 6666, 6667, 6787, 6786
6735, 6667, 6668, 6788, 6787
6736, 6668, 6669, 6789, 6788
6737, 6669, 6670, 6790, 6789
6738, 6670, 6671, 6791, 6790
6739, 6671, 6672, 6792, 6791
6740, 6672, 6673, 6793, 6792
6741, 6673, 6674, 6794, 6793
6742, 6674, 6675, 6795, 6794
6743, 6675, 6676, 6796, 6795
6744, 6676, 6677, 6797, 6796
6745, 6677, 6678, 6798, 6797
6746, 6678, 6679, 6799, 6798
6747, 6679, 6680, 6800, 6799
6748, 6680, 6681, 6801, 6800
6749, 6681, 6682, 6802, 6801
6750, 6682, 6683, 6803, 6802
6751, 6683, 6684, 6804, 6803
6752, 6684, 6685, 6805, 6804
6753, 6685, 6686, 6806, 6805
6754, 6686, 6687, 6807, 6806
6755, 6687, 6688, 6808, 6807
6756, 6688, 6689, 6809, 6808
6757, 6689, 6690, 6810, 6809
6758, 6690, 6691, 6811, 6810
6759, 6691, 6692, 6812, 6811
6760, 6692, 6693, 6813, 6812
6761, 6693, 6694, 6814, 6813
6762, 6694, 6695, 6815, 6814
6763, 6695, 6696, 6816, 6815
6764, 6696, 6697, 6817, 6816
6765, 6697, 6698, 6818, 6817
6766, 6698, 6699, 6819, 6818
6767, 6699, 6700, 6820, 6819
6768, 6700, 6581, 6701, 6820
6769, 6701, 6702, 6822, 6821
6770, 6702, 6703, 6823, 6822
6771, 6703, 6704, 6824, 6823
6772, 6704, 6705, 6825, 6824
6773, 6705, 6706, 6826, 6825
6774, 6706, 6707, 6827, 6826
6775, 6707, 6708, 6828, 6827
6776, 6708, 6709, 6829, 6828
6777, 6709, 6710, 6830, 6829
6778, 6710, 6711, 6831, 6830
6779, 6711, 6712, 6832, 6831
6780, 6712, 6713, 6833, 6832
6781, 6713, 6714, 6834, 6833
6782, 6714, 6715, 6835, 6834
6783, 6715, 6716, 6836, 6835
6784, 6716, 6717, 6837, 6836
6785, 6717, 6718, 6838, 6837
6786, 6718, 6719, 6839, 6838
6787, 6719, 6720, 6840, 6839
6788, 6720, 6721, 6841, 6840
6789, 6721, 6722, 6842, 6841
6790, 6722, 6723, 6843, 6842
6791, 6723, 6724, 6844, 6843
6792, 6724, 6725, 6845, 6844
6793, 6725, 6726, 6846, 6845
6794, 6726, 6727, 6847, 6846
6795, 6727, 6728, 6848, 6847
6796, 6728, 6729, 6849, 6848
6797, 6729, 6730, 6850, 6849
6798, 6730, 6731, 6851, 6850
6799, 6731, 6732, 6852, 6851
6800, 6732, 6733, 6853, 6852
6801, 6733, 6734, 6854, 6853
6802, 6734, 6735, 6855, 6854
6803, 6735, 6736, 6856, 6855
6804, 6736, 6737, 6857, 6856
6805, 6737, 6738, 6858, 6857
6806, 6738, 6739, 6859, 6858
6807, 6739, 6740, 6860, 6859
6808, 6740, 6741, 6861, 6860
6809, 6741, 6742, 6862, 6861
6810, 6742, 6743, 6863, 6862
6811, 6743, 6744, 6864, 6863
6812, 6744, 6745, 6865, 6864
6813, 6745, 6746, 6866, 6865
6814, 6746, 6747, 6867, 6866
6815, 6747, 6748, 6868, 6867
6816, 6748, 6749, 6869, 6868
6817, 6749, 6750, 6870, 6869
6818, 6750, 6751, 6871, 6870
6819, 6751, 6752, 6872, 6871
6820, 6752, 6753, 6873, 6872
6821, 6753, 6754, 6874, 6873
6822, 6754, 6755, 6875, 6874
6823, 6755, 6756, 6876, 6875
6824, 6756, 6757, 6877, 6876
6825, 6757, 6758, 6878, 6877
6826, 6758, 6759, 6879, 6878
6827, 6759, 6760, 6880, 6879
6828, 6760, 6761, 6881, 6880
6829, 6761, 6762, 6882, 6881
6830, 6762, 6763, 6883, 6882
6831, 6763, 6764, 6884, 6883
6832, 6764, 6765, 6885, 6884
6833, 6765, 6766, 6886, 6885
6834, 6766, 6767, 6887, 6886
6835, 6767, 6768, 6888, 6887
6836, 6768, 6769, 6889, 6888
6837, 6769, 6770, 6890, 6889
6838, 6770, 6771, 6891, 6890
6839, 6771, 6772, 6892, 6891
6840, 6772, 6773, 6893, 6892
6841, 6773, 6774, 6894, 6893
6842, 6774, 6775, 6895, 6894
6843, 6775, 6776, 6896, 6895
6844, 6776, 6777, 6897, 6896
6845, 6777, 6778, 6898, 6897
6846, 6778, 6779, 6899, 6898
6847, 6779, 6780, 6900, 6899
6848, 6780, 6781, 6901, 6900
6849, 6781, 6782, 6902, 6901
6850, 6782, 6783, 6903, 6902
6851, 6783, 6784, 6904, 6903
6852, 6784, 6785, 6905, 6904
6853, 6785, 6786, 6906, 6905
6854, 6786, 6787, 6907, 6906
6855, 6787, 6788, 6908, 6907
6856, 6788, 6789, 6909, 6908
6857, 6789, 6790, 6910, 6909
6858, 6790, 6791, 6911, 6910
6859, 6791, 6792, 6912, 6911
6860, 6792, 6793, 6913, 6912
6861, 6793, 6794, 6914, 6913
6862, 6794, 6795, 6915, 6914
6863, 6795, 6796, 6916, 6915
6864, 6796, 6797, 6917, 6916
6865, 6797, 6798, 6918, 6917
6866, 6798, 6799, 6919, 6918
6867, 6799, 6800, 6920, 6919
6868, 6800, 6801, 6921, 6920
6869, 6801, 6802, 6922, 6921
6870, 6802, 6803, 6923, 6922
6871, 6803, 6804, 6924, 6923
6872, 6804, 6805, 6925, 6924
6873, 6805, 6806, 6926, 6925
6874, 6806, 6807, 6927, 6926
6875, 6807, 6808, 6928, 6927
6876, 6808, 6809, 6929, 6928
6877, 6809, 6810, 6930, 6929
6878, 6810, 6811, 6931, 6930
6879, 6811, 6812, 6932, 6931
6880, 6812, 6813, 6933, 6932
6881, 6813, 6814, 6934, 6933
6882, 6814, 6815, 6935, 6934
6883, 6815, 6816, 6936, 6935
6884, 6816, 6817, 6937, 6936
6885, 6817, 6818, 6938, 6937
6886, 6818, 6819, 6939, 6938
6887, 6819, 6820, 6940, 6939
6888, 6820, 6701, 6821, 6940
6889, 6821, 6822, 6942, 6941
6890, 6822, 6823, 6943, 6942
6891, 6823, 6824, 6944, 6943
6892, 6824, 6825, 6945, 6944
6893, 6825, 6826, 6946, 6945
6894, 6826, 6827, 6947, 6946
6895, 6827, 6828, 6948, 6947
6896, 6828, 6829, 6949, 6948
6897, 6829, 6830, 6950, 6949
6898, 6830, 6831, 6951, 6950
6899, 6831, 6832, 6952, 6951
6900, 6832, 6833, 6953, 6952
6901, 6833, 6834, 6954, 6953
6902, 6834, 6835, 6955, 6954
6903, 6835, 6836, 6956, 6955
6904, 6836, 6837, 6957, 6956
6905, 6837, 6838, 6958, 6957
6906, 6838, 6839, 6959, 6958
6907, 6839, 6840, 6960, 6959
6908, 6840, 6841, 6961, 6960
6909, 6841, 6842, 6962, 6961
6910, 6842, 6843, 6963, 6962
6911, 6843, 6844, 6964, 6963
6912, 6844, 6845, 6965, 6964
6913, 6845, 6846, 6966, 6965
6914, 6846, 6847, 6967, 6966
6915, 6847, 6848, 6968, 6967
6916, 6848, 6849, 6969, 6968
6917, 6849, 6850, 6970, 6969
6918, 6850, 6851, 6971, 6970
6919, 6851, 6852, 6972, 6971
6920, 6852, 6853, 6973, 6972
6921, 6853, 6854, 6974, 6973
6922, 6854, 6855, 6975, 6974
6923, 6855, 6856, 6976, 6975
6924, 6856, 6857, 6977, 6976
6925, 6857, 6858, 6978, 6977
6926, 6858, 6859, 6979, 6978
6927, 6859, 6860, 6980, 6979
6928, 6860, 6861, 6981, 6980
6929, 6861, 6862, 6982, 6981
6930, 6862, 6863, 6983, 6982
6931, 6863, 6864, 6984, 6983
6932, 6864, 6865, 6985, 6984
6933, 6865, 6866, 6986, 6985
6934, 6866, 6867, 6987, 6986
6935, 6867, 6868, 6988, 6987
6936, 6868, 6869, 6989, 6988
6937, 6869, 6870, 6990, 6989
6938, 6870, 6871, 6991, 6990
6939, 6871, 6872, 6992, 6991
6940, 6872, 6873, 6993, 6992
6941, 6873, 6874, 6994, 6993
6942, 6874, 6875, 6995, 6994
6943, 6875, 6876, 6996, 6995
6944, 6876, 6877, 6997, 6996
6945, 6877, 6878, 6998, 6997
6946, 6878, 6879, 6999, 6998
6947, 6879, 6880, 7000, 6999
6948, 6880, 6881, 7001, 7000
6949, 6881, 6882, 7002, 7001
6950, 6882, 6883, 7003, 7002
6951, 6883, 6884, 7004, 7003
6952, 6884, 6885, 7005, 7004
6953, 6885, 6886, 7006, 7005
6954, 6886, 6887, 7007, 7006
6955, 6887, 6888, 7008, 7007
6956, 6888, 6889, 7009, 7008
6957, 6889, 6890, 7010, 7009
6958, 6890, 6891, 7011, 7010
6959, 6891, 6892, 7012, 7011
6960, 6892, 6893, 7013, 7012
6961, 6893, 6894, 7014, 7013
6962, 6894, 6895, 7015, 7014
6963, 6895, 6896, 7016, 7015
6964, 6896, 6897, 7017, 7016
6965, 6897, 6898, 7018, 7017
6966, 6898, 6899, 7019, 7018
6967, 6899, 6900, 7020, 7019
6968, 6900, 6901, 7021, 7020
6969, 6901, 6902, 7022, 7021
6970, 6902, 6903, 7023, 7022
6971, 6903, 6904, 7024, 7023
6972, 6904, 6905, 7025, 7024
6973, 6905, 6906, 7026, 7025
6974, 6906, 6907, 7027, 7026
6975, 6907, 6908, 7028, 7027
6976, 6908, 6909, 7029, 7028
6977, 6909, 6910, 7030, 7029
6978, 6910, 6911, 7031, 7030
6979, 6911, 6912, 7032, 7031
6980, 6912, 6913, 7033, 7032
6981, 6913, 6914, 7034, 7033
6982, 6914, 6915, 7035, 7034
6983, 6915, 6916, 7036, 7035
6984, 6916, 6917, 7037, 7036
6985, 6917, 6918, 7038, 7037
6986, 6918, 6919, 7039, 7038
6987, 6919, 6920, 7040, 7039
6988, 6920, 6921, 7041, 7040
6989, 6921, 6922, 7042, 7041
6990, 6922, 6923, 7043, 7042
6991, 6923, 6924, 7044, 7043
6992, 6924, 6925, 7045, 7044
6993, 6925, 6926, 7046, 7045
6994, 6926, 6927, 7047, 7046
6995, 6927, 6928, 7048, 7047
6996, 6928, 6929, 7049, 7048
6997, 6929, 6930, 7050, 7049
6998, 6930, 6931, 7051, 7050
6999, 6931, 6932, 7052, 7051
7000, 6932, 6933, 7053, 7052
7001, 6933, 6934, 7054, 7053
7002, 6934, 6935, 7055, 7054
7003, 6935, 6936, 7056, 7055
7004, 6936, 6937, 7057, 7056
7005, 6937, 6938, 7058, 7057
7006, 6938, 6939, 7059, 7058
7007, 6939, 6940, 7060, 7059
7008, 6940, 6821, 6941, 7060
7009, 6941, 6942, 7062, 7061
7010, 6942, 6943, 7063, 7062
7011, 6943, 6944, 7064, 7063
7012, 6944, 6945, 7065, 7064
7013, 6945, 6946, 7066, 7065
7014, 6946, 6947, 7067, 7066
7015, 6947, 6948, 7068, 7067
7016, 6948, 6949, 7069, 7068
7017, 6949, 6950, 7070, 7069
7018, 6950, 6951, 7071, 7070
7019, 6951, 6952, 7072, 7071
7020, 6952, 6953, 7073, 7072
7021, 6953, 6954, 7074, 7073
7022, 6954, 6955, 7075, 7074
7023, 6955, 6956, 7076, 7075
7024, 6956, 6957, 7077, 7076
7025, 6957, 6958, 7078, 7077
7026, 6958, 6959, 7079, 7078
7027, 6959, 6960, 7080, 7079
7028, 6960, 6961, 7081, 7080
7029, 6961, 6962, 7082, 7081
7030, 6962, 6963, 7083, 7082
7031, 6963, 6964, 7084, 7083
7032, 6964, 6965, 7085, 7084
7033, 6965, 6966, 7086, 7085
7034, 6966, 6967, 7087, 7086
7035, 6967, 6968, 7088, 7087
7036, 6968, 6969, 7089, 7088
7037, 6969, 6970, 7090, 7089
7038, 6970, 6971, 7091, 7090
7039, 6971, 6972, 7092, 7091
7040, 6972, 6973, 7093, 7092
7041, 6973, 6974, 7094, 7093
7042, 6974, 6975, 7095, 7094
7043, 6975, 6976, 7096, 7095
7044, 6976, 6977, 7097, 7096
7045, 6977, 6978, 7098, 7097
7046, 6978, 6979, 7099, 7098
7047, 6979, 6980, 7100, 7099
7048, 6980, 6981, 7101, 7100
7049, 6981, 6982, 7102, 7101
7050, 6982, 6983, 7103, 7102
7051, 6983, 6984, 7104, 7103
7052, 6984, 6985, 7105, 7104
7053, 6985, 6986, 7106, 7105
7054, 6986, 6987, 7107, 7106
7055, 6987, 6988, 7108, 7107
7056, 6988, 6989, 7109, 7108
7057, 6989, 6990, 7110, 7109
7058, 6990, 6991, 7111, 7110
7059, 6991, 6992, 7112, 7111
7060, 6992, 6993, 7113, 7112
7061, 6993, 6994, 7114, 7113
7062, 6994, 6995, 7115, 7114
7063, 6995, 6996, 7116, 7115
7064, 6996, 6997, 7117, 7116
7065, 6997, 6998, 7118, 7117
7066, 6998, 6999, 7119, 7118
7067, 6999, 7000, 7120, 7119
7068, 7000, 7001, 7121, 7120
7069, 7001, 7002, 7122, 7121
7070, 7002, 7003, 7123, 7122
7071, 7003, 7004, 7124, 7123
7072, 7004, 7005, 7125, 7124
7073, 7005, 7006, 7126, 7125
7074, 7006, 7007, 7127, 7126
7075, 7007, 7008, 7128, 7127
7076, 7008, 7009, 7129, 7128
7077, 7009, 7010, 7130, 7129
7078, 7010, 7011, 7131, 7130
7079, 7011, 7012, 7132, 7131
7080, 7012, 7013, 7133, 7132
7081, 7013, 7014, 7134, 7133
7082, 7014, 7015, 7135, 7134
7083, 7015, 7016, 7136, 7135
7084, 7016, 7017, 7137, 7136
7085, 7017, 7018, 7138, 7137
7086, 7018, 7019, 7139, 7138
7087, 7019, 7020, 7140, 7139
7088, 7020, 7021, 7141, 7140
7089, 7021, 7022, 7142, 7141
7090, 7022, 7023, 7143, 7142
7091, 7023, 7024, 7144, 7143
7092, 7024, 7025, 7145, 7144
7093, 7025, 7026, 7146, 7145
7094, 7026, 7027, 7147, 7146
7095, 7027, 7028, 7148, 7147
7096, 7028, 7029, 7149, 7148
7097, 7029, 7030, 7150, 7149
7098, 7030, 7031, 7151, 7150
7099, 7031, 7032, 7152, 7151
7100, 7032, 7033, 7153, 7152
7101, 7033, 7034, 7154, 7153
7102, 7034, 7035, 7155, 7154
7103, 7035, 7036, 7156, 7155
7104, 7036, 7037, 7157, 7156
7105, 7037, 7038, 7158, 7157
7106, 7038, 7039, 7159, 7158
7107, 7039, 7040, 7160, 7159
7108, 7040, 7041, 7161, 7160
7109, 7041, 7042, 7162, 7161
7110, 7042, 7043, 7163, 7162
7111, 7043, 7044, 7164, 7163
7112, 7044, 7045, 7165, 7164
7113, 7045, 7046, 7166, 7165
7114, 7046, 7047, 7167, 7166
7115, 7047, 7048, 7168, 7167
7116, 7048, 7049, 7169, 7168
7117, 7049, 7050, 7170, 7169
7118, 7050, 7051, 7171, 7170
7119, 7051, 7052, 7172, 7171
7120, 7052, 7053, 7173, 7172
7121, 7053, 7054, 7174, 7173
7122, 7054, 7055, 7175, 7174
7123, 7055, 7056, 7176, 7175
7124, 7056, 7057, 7177, 7176
7125, 7057, 7058, 7178, 7177
7126, 7058, 7059, 7179, 7178
7127, 7059, 7060, 7180, 7179
7128, 7060, 6941, 7061, 7180
7129, 7061, 7062, 7182, 7181
7130, 7062, 7063, 7183, 7182
7131, 7063, 7064, 7184, 7183
7132, 7064, 7065, 7185, 7184
7133, 7065, 7066, 7186, 7185
7134, 7066, 7067, 7187, 7186
7135, 7067, 7068, 7188, 7187
7136, 7068, 7069, 7189, 7188
7137, 7069, 7070, 7190, 7189
7138, 7070, 7071, 7191, 7190
7139, 7071, 7072, 7192, 7191
7140, 7072, 7073, 7193, 7192
7141, 7073, 7074, 7194, 7193
7142, 7074, 7075, 7195, 7194
7143, 7075, 7076, 7196, 7195
7144, 7076, 7077, 7197, 7196
7145, 7077, 7078, 7198, 7197
7146, 7078, 7079, 7199, 7198
7147, 7079, 7080, 7200, 7199
7148, 7080, 7081, 7201, 7200
7149, 7081, 7082, 7202, 7201
7150, 7082, 7083, 7203, 7202
7151, 7083, 7084, 7204, 7203
7152, 7084, 7085, 7205, 7204
7153, 7085, 7086, 7206, 7205
7154, 7086, 7087, 7207, 7206
7155, 7087, 7088, 7208, 7207
7156, 7088, 7089, 7209, 7208
7157, 7089, 7090, 7210, 7209
7158, 7090, 7091, 7211, 7210
7159, 7091, 7092, 7212, 7211
7160, 7092, 7093, 7213, 7212
7161, 7093, 7094, 7214, 7213
7162, 7094, 7095, 7215, 7214
7163, 7095, 7096, 7216, 7215
7164, 7096, 7097, 7217, 7216
7165, 7097, 7098, 7218, 7217
7166, 7098, 7099, 7219, 7218
7167, 7099, 7100, 7220, 7219
7168, 7100, 7101, 7221, 7220
7169, 7101, 7102, 7222, 7221
7170, 7102, 7103, 7223, 7222
7171, 7103, 7104, 7224, 7223
7172, 7104, 7105, 7225, 7224
7173, 7105, 7106, 7226, 7225
7174, 7106, 7107, 7227, 7226
7175, 7107, 7108, 7228, 7227
7176, 7108, 7109, 7229, 7228
7177, 7109, 7110, 7230, 7229
7178, 7110, 7111, 7231, 7230
7179, 7111, 7112, 7232, 7231
7180, 7112, 7113, 7233, 7232
7181, 7113, 7114, 7234, 7233
7182, 7114, 7115, 7235, 7234
7183, 7115, 7116, 7236, 7235
7184, 7116, 7117, 7237, 7236
7185, 7117, 7118, 7238, 7237
7186, 7118, 7119, 7239, 7238
7187, 7119, 7120, 7240, 7239
7188, 7120, 7121, 7241, 7240
7189, 7121, 7122, 7242, 7241
7190, 7122, 7123, 7243, 7242
7191, 7123, 7124, 7244, 7243
7192, 7124, 7125, 7245, 7244
7193, 7125, 7126, 7246, 7245
7194, 7126, 7127, 7247, 7246
7195, 7127, 7128, 7248, 7247
7196, 7128, 7129, 7249, 7248
7197, 7129, 7130, 7250, 7249
7198, 7130, 7131, 7251, 7250
7199, 7131, 7132, 7252, 7251
7200, 7132, 7133, 7253, 7252
7201, 7133, 7134, 7254, 7253
7202, 7134, 7135, 7255, 7254
7203, 7135, 7136, 7256, 7255
7204, 7136, 7137, 7257, 7256
7205, 7137, 7138, 7258, 7257
7206, 7138, 7139, 7259, 7258
7207, 7139, 7140, 7260, 7259
7208, 7140, 7141, 7261, 7260
7209, 7141, 7142, 7262, 7261
7210, 7142, 7143, 7263, 7262
7211, 7143, 7144, 7264, 7263
7212, 7144, 7145, 7265, 7264
7213, 7145, 7146, 7266, 7265
7214, 7146, 7147, 7267, 7266
7215, 7147, 7148, 7268, 7267
7216, 7148, 7149, 7269, 7268
7217, 7149, 7150, 7270, 7269
7218, 7150, 7151, 7271, 7270
7219, 7151, 7152, 7272, 7271
7220, 7152, 7153, 7273, 7272
7221, 7153, 7154, 7274, 7273
7222, 7154, 7155, 7275, 7274
7223, 7155, 7156, 7276, 7275
7224, 7156, 7157, 7277, 7276
7225, 7157, 7158, 7278, 7277
7226, 7158, 7159, 7279, 7278
7227, 7159, 7160, 7280, 7279
7228, 7160, 7161, 7281, 7280
7229, 7161, 7162, 7282, 7281
7230, 7162, 7163, 7283, 7282
7231, 7163, 7164, 7284, 7283
7232, 7164, 7165, 7285, 7284
7233, 7165, 7166, 7286, 7285
7234, 7166, 7167, 7287, 7286
7235, 7167, 7168, 7288, 7287
7236, 7168, 7169, 7289, 7288
7237, 7169, 7170, 7290, 7289
7238, 7170, 7171, 7291, 7290
7239, 7171, 7172, 7292, 7291
7240, 7172, 7173, 7293, 7292
7241, 7173, 7174, 7294, 7293
7242, 7174, 7175, 7295, 7294
7243, 7175, 7176, 7296, 7295
7244, 7176, 7177, 7297, 7296
7245, 7177, 7178, 7298, 7297
7246, 7178, 7179, 7299, 7298
7247, 7179, 7180, 7300, 7299
7248, 7180, 7061, 7181, 7300
7249, 7181, 7182, 7302, 7301
7250, 7182, 7183, 7303, 7302
7251, 7183, 7184, 7304, 7303
7252, 7184, 7185, 7305, 7304
7253, 7185, 7186, 7306, 7305
7254, 7186, 7187, 7307, 7306
7255, 7187, 7188, 7308, 7307
7256, 7188, 7189, 7309, 7308
7257, 7189, 7190, 7310, 7309
7258, 7190, 7191, 7311, 7310
7259, 7191, 7192, 7312, 7311
7260, 7192, 7193, 7313, 7312
7261, 7193, 7194, 7314, 7313
7262, 7194, 7195, 7315, 7314
7263, 7195, 7196, 7316, 7315
7264, 7196, 7197, 7317, 7316
7265, 7197, 7198, 7318, 7317
7266, 7198, 7199, 7319, 7318
7267, 7199, 7200, 7320, 7319
7268, 7200, 7201, 7321, 7320
7269, 7201, 7202, 7322, 7321
7270, 7202, 7203, 7323, 7322
7271, 7203, 7204, 7324, 7323
7272, 7204, 7205, 7325, 7324
7273, 7205, 7206, 7326, 7325
7274, 7206, 7207, 7327, 7326
7275, 7207, 7208, 7328, 7327
7276, 7208, 7209, 7329, 7328
7277, 7209, 7210, 7330, 7329
7278, 7210, 7211, 7331, 7330
7279, 7211, 7212, 7332, 7331
7280, 7212, 7213, 7333, 7332
7281, 7213, 7214, 7334, 7333
7282, 7214, 7215, 7335, 7334
7283, 7215, 7216, 7336, 7335
7284, 7216, 7217, 7337, 7336
7285, 7217, 7218, 7338, 7337
7286, 7218, 7219, 7339, 7338
7287, 7219, 7220, 7340, 7339
7288, 7220, 7221, 7341, 7340
7289, 7221, 7222, 7342, 7341
7290, 7222, 7223, 7343, 7342
7291, 7223, 7224, 7344, 7343
7292, 7224, 7225, 7345, 7344
7293, 7225, 7226, 7346, 7345
7294, 7226, 7227, 7347, 7346
7295, 7227, 7228, 7348, 7347
7296, 7228, 7229, 7349, 7348
7297, 7229, 7230, 7350, 7349
7298, 7230, 7231, 7351, 7350
7299, 7231, 7232, 7352, 7351
7300, 7232, 7233, 7353, 7352
7301, 7233, 7234, 7354, 7353
7302, 7234, 7235, 7355, 7354
7303, 7235, 7236, 7356, 7355
7304, 7236, 7237, 7357, 7356
7305, 7237, 7238, 7358, 7357
7306, 7238, 7239, 7359, 7358
7307, 7239, 7240, 7360, 7359
7308, 7240, 7241, 7361, 7360
7309, 7241, 7242, 7362, 7361
7310, 7242, 7243, 7363, 7362
7311, 7243, 7244, 7364, 7363
7312, 7244, 7245, 7365, 7364
7313, 7245, 7246, 7366, 7365
7314, 7246, 7247, 7367, 7366
7315, 7247, 7248, 7368, 7367
7316, 7248, 7249, 7369, 7368
7317, 7249, 7250, 7370, 7369
7318, 7250, 7251, 7371, 7370
7319, 7251, 7252, 7372, 7371
7320, 7252, 7253, 7373, 7372
7321, 7253, 7254, 7374, 7373
7322, 7254, 7255, 7375, 7374
7323, 7255, 7256, 7376, 7375
7324, 7256, 7257, 7377, 7376
7325, 7257, 7258, 7378, 7377
7326, 7258, 7259, 7379, 7378
7327, 7259, 7260, 7380, 7379
7328, 7260, 7261, 7381, 7380
7329, 7261, 7262, 7382, 7381
7330, 7262, 7263, 7383, 7382
7331, 7263, 7264, 7384, 7383
7332, 7264, 7265, 7385, 7384
7333, 7265, 7266, 7386, 7385
7334, 7266, 7267, 7387, 7386
7335, 7267, 7268, 7388, 7387
7336, 7268, 7269, 7389, 7388
7337, 7269, 7270, 7390, 7389
7338, 7270, 7271, 7391, 7390
7339, 7271, 7272, 7392, 7391
7340, 7272, 7273, 7393, 7392
7341, 7273, 7274, 7394, 7393
7342, 7274, 7275, 7395, 7394
7343, 7275, 7276, 7396, 7395
7344, 7276, 7277, 7397, 7396
7345, 7277, 7278, 7398, 7397
7346, 7278, 7279, 7399, 7398
7347, 7279, 7280, 7400, 7399
7348, 7280, 7281, 7401, 7400
7349, 7281, 7282, 7402, 7401
7350, 7282, 7283, 7403, 7402
7351, 7283, 7284, 7404, 7403
7352, 7284, 7285, 7405, 7404
7353, 7285, 7286, 7406, 7405
7354, 7286, 7287, 7407, 7406
7355, 7287, 7288, 7408, 7407
7356, 7288, 7289, 7409, 7408
7357, 7289, 7290, 7410, 7409
7358, 7290, 7291, 7411, 7410
7359, 7291, 7292, 7412, 7411
7360, 7292, 7293, 7413, 7412
7361, 7293, 7294, 7414, 7413
7362, 7294, 7295, 7415, 7414
7363, 7295, 7296, 7416, 7415
7364, 7296, 7297, 7417, 7416
7365, 7297, 7298, 7418, 7417
7366, 7298, 7299, 7419, 7418
7367, 7299, 7300, 7420, 7419
7368, 7300, 7181, 7301, 7420
7369, 7301, 7302, 7422, 7421
7370, 7302, 7303, 7423, 7422
7371, 7303, 7304, 7424, 7423
7372, 7304, 7305, 7425, 7424
7373, 7305, 7306, 7426, 7425
7374, 7306, 7307, 7427, 7426
7375, 7307, 7308, 7428, 7427
7376, 7308, 7309, 7429, 7428
7377, 7309, 7310, 7430, 7429
7378, 7310, 7311, 7431, 7430
7379, 7311, 7312, 7432, 7431
7380, 7312, 7313, 7433, 7432
7381, 7313, 7314, 7434, 7433
7382, 7314, 7315, 7435, 7434
7383, 7315, 7316, 7436, 7435
7384, 7316, 7317, 7437, 7436
7385, 7317, 7318, 7438, 7437
7386, 7318, 7319, 7439, 7438
7387, 7319, 7320, 7440, 7439
7388, 7320, 7321, 7441, 7440
7389, 7321, 7322, 7442, 7441
7390, 7322, 7323, 7443, 7442
7391, 7323, 7324, 7444, 7443
7392, 7324, 7325, 7445, 7444
7393, 7325, 7326, 7446, 7445
7394, 7326, 7327, 7447, 7446
7395, 7327, 7328, 7448, 7447
7396, 7328, 7329, 7449, 7448
7397, 7329, 7330, 7450, 7449
7398, 7330, 7331, 7451, 7450
7399, 7331, 7332, 7452, 7451
7400, 7332, 7333, 7453, 7452
7401, 7333, 7334, 7454, 7453
7402, 7334, 7335, 7455, 7454
7403, 7335, 7336, 7456, 7455
7404, 7336, 7337, 7457, 7456
7405, 7337, 7338, 7458, 7457
7406, 7338, 7339, 7459, 7458
7407, 7339, 7340, 7460, 7459
7408, 7340, 7341, 7461, 7460
7409, 7341, 7342, 7462, 7461
7410, 7342, 7343, 7463, 7462
7411, 7343, 7344, 7464, 7463
7412, 7344, 7345, 7465, 7464
7413, 7345, 7346, 7466, 7465
7414, 7346, 7347, 7467, 7466
7415, 7347, 7348, 7468, 7467
7416, 7348, 7349, 7469, 7468
7417, 7349, 7350, 7470, 7469
7418, 7350, 7351, 7471, 7470
7419, 7351, 7352, 7472, 7471
7420, 7352, 7353, 7473, 7472
7421, 7353, 7354, 7474, 7473
7422, 7354, 7355, 7475, 7474
7423, 7355, 7356, 7476, 7475
7424, 7356, 7357, 7477, 7476
7425, 7357, 7358, 7478, 7477
7426, 7358, 7359, 7479, 7478
7427, 7359, 7360, 7480, 7479
7428, 7360, 7361, 7481, 7480
7429, 7361, 7362, 7482, 7481
7430, 7362, 7363, 7483, 7482
7431, 7363, 7364, 7484, 7483
7432, 7364, 7365, 7485, 7484
7433, 7365, 7366, 7486, 7485
7434, 7366, 7367, 7487, 7486
7435, 7367, 7368, 7488, 7487
7436, 7368, 7369, 7489, 7488
7437, 7369, 7370, 7490, 7489
7438, 7370, 7371, 7491, 7490
7439, 7371, 7372, 7492, 7491
7440, 7372, 7373, 7493, 7492
7441, 7373, 7374, 7494, 7493
7442, 7374, 7375, 7495, 7494
7443, 7375, 7376, 7496, 7495
7444, 7376, 7377, 7497, 7496
7445, 7377, 7378, 7498, 7497
7446, 7378, 7379, 7499, 7498
7447, 7379, 7380, 7500, 7499
7448, 7380, 7381, 7501, 7500
7449, 7381, 7382, 7502, 7501
7450, 7382, 7383, 7503, 7502
7451, 7383, 7384, 7504, 7503
7452, 7384, 7385, 7505, 7504
7453, 7385, 7386, 7506, 7505
7454, 7386, 7387, 7507, 7506
7455, 7387, 7388, 7508, 7507
7456, 7388, 7389, 7509, 7508
7457, 7389, 7390, 7510, 7509
7458, 7390, 7391, 7511, 7510
7459, 7391, 7392, 7512, 7511
7460, 7392, 7393, 7513, 7512
7461, 7393, 7394, 7514, 7513
7462, 7394, 7395, 7515, 7514
7463, 7395, 7396, 7516, 7515
7464, 7396, 7397, 7517, 7516
7465, 7397, 7398, 7518, 7517
7466, 7398, 7399, 7519, 7518
7467, 7399, 7400, 7520, 7519
7468, 7400, 7401, 7521, 7520
7469, 7401, 7402, 7522, 7521
7470, 7402, 7403, 7523, 7522
7471, 7403, 7404, 7524, 7523
7472, 7404, 7405, 7525, 7524
7473, 7405, 7406, 7526, 7525
7474, 7406, 7407, 7527, 7526
7475, 7407, 7408, 7528, 7527
7476, 7408, 7409, 7529, 7528
7477, 7409, 7410, 7530, 7529
7478, 7410, 7411, 7531, 7530
7479, 7411, 7412, 7532, 7531
7480, 7412, 7413, 7533, 7532
7481, 7413, 7414, 7534, 7533
7482, 7414, 7415, 7535, 7534
7483, 7415, 7416, 7536, 7535
7484, 7416, 7417, 7537, 7536
7485, 7417, 7418, 7538, 7537
7486, 7418, 7419, 7539, 7538
7487, 7419, 7420, 7540, 7539
7488, 7420, 7301, 7421, 7540
7489, 7421, 7422, 7542, 7541
7490, 7422, 7423, 7543, 7542
7491, 7423, 7424, 7544, 7543
7492, 7424, 7425, 7545, 7544
7493, 7425, 7426, 7546, 7545
7494, 7426, 7427, 7547, 7546
7495, 7427, 7428, 7548, 7547
7496, 7428, 7429, 7549, 7548
7497, 7429, 7430, 7550, 7549
7498, 7430, 7431, 7551, 7550
7499, 7431, 7432, 7552, 7551
7500, 7432, 7433, 7553, 7552
7501, 7433, 7434, 7554, 7553
7502, 7434, 7435, 7555, 7554
7503, 7435, 7436, 7556, 7555
7504, 7436, 7437, 7557, 7556
7505, 7437, 7438, 7558, 7557
7506, 7438, 7439, 7559, 7558
7507, 7439, 7440, 7560, 7559
7508, 7440, 7441, 7561, 7560
7509, 7441, 7442, 7562, 7561
7510, 7442, 7443, 7563, 7562
7511, 7443, 7444, 7564, 7563
7512, 7444, 7445, 7565, 7564
7513, 7445, 7446, 7566, 7565
7514, 7446, 7447, 7567, 7566
7515, 7447, 7448, 7568, 7567
7516, 7448, 7449, 7569, 7568
7517, 7449, 7450, 7570, 7569
7518, 7450, 7451, 7571, 7570
7519, 7451, 7452, 7572, 7571
7520, 7452, 7453, 7573, 7572
7521, 7453, 7454, 7574, 7573
7522, 7454, 7455, 7575, 7574
7523, 7455, 7456, 7576, 7575
7524, 7456, 7457, 7577, 7576
7525, 7457, 7458, 7578, 7577
7526, 7458, 7459, 7579, 7578
7527, 7459, 7460, 7580, 7579
7528, 7460, 7461, 7581, 7580
7529, 7461, 7462, 7582, 7581
7530, 7462, 7463, 7583, 7582
7531, 7463, 7464, 7584, 7583
7532, 7464, 7465, 7585, 7584
7533, 7465, 7466, 7586, 7585
7534, 7466, 7467, 7587, 7586
7535, 7467, 7468, 7588, 7587
7536, 7468, 7469, 7589, 7588
7537, 7469, 7470, 7590, 7589
7538, 7470, 7471, 7591, 7590
7539, 7471, 7472, 7592, 7591
7540, 7472, 7473, 7593, 7592
7541, 7473, 7474, 7594, 7593
7542, 7474, 7475, 7595, 7594
7543, 7475, 7476, 7596, 7595
7544, 7476, 7477, 7597, 7596
7545, 7477, 7478, 7598, 7597
7546, 7478, 7479, 7599, 7598
7547, 7479, 7480, 7600, 7599
7548, 7480, 7481, 7601, 7600
7549, 7481, 7482, 7602, 7601
7550, 7482, 7483, 7603, 7602
7551, 7483, 7484, 7604, 7603
7552, 7484, 7485, 7605, 7604
7553, 7485, 7486, 7606, 7605
7554, 7486, 7487, 7607, 7606
7555, 7487, 7488, 7608, 7607
7556, 7488, 7489, 7609, 7608
7557, 7489, 7490, 7610, 7609
7558, 7490, 7491, 7611, 7610
7559, 7491, 7492, 7612, 7611
7560, 7492, 7493, 7613, 7612
7561, 7493, 7494, 7614, 7613
7562, 7494, 7495, 7615, 7614
7563, 7495, 7496, 7616, 7615
7564, 7496, 7497, 7617, 7616
7565, 7497, 7498, 7618, 7617
7566, 7498, 7499, 7619, 7618
7567, 7499, 7500, 7620, 7619
7568, 7500, 7501, 7621, 7620
7569, 7501, 7502, 7622, 7621
7570, 7502, 7503, 7623, 7622
7571, 7503, 7504, 7624, 7623
7572, 7504, 7505, 7625, 7624
7573, 7505, 7506, 7626, 7625
7574, 7506, 7507, 7627, 7626
7575, 7507, 7508, 7628, 7627
7576, 7508, 7509, 7629, 7628
7577, 7509, 7510, 7630, 7629
7578, 7510, 7511, 7631, 7630
7579, 7511, 7512, 7632, 7631
7580, 7512, 7513, 7633, 7632
7581, 7513, 7514, 7634, 7633
7582, 7514, 7515, 7635, 7634
7583, 7515, 7516, 7636, 7635
7584, 7516, 7517, 7637, 7636
7585, 7517, 7518, 7638, 7637
7586, 7518, 7519, 7639, 7638
7587, 7519, 7520, 7640, 7639
7588, 7520, 7521, 7641, 7640
7589, 7521, 7522, 7642, 7641
7590, 7522, 7523, 7643, 7642
7591, 7523, 7524, 7644, 7643
7592, 7524, 7525, 7645, 7644
7593, 7525, 7526, 7646, 7645
7594, 7526, 7527, 7647, 7646
7595, 7527, 7528, 7648, 7647
7596, 7528, 7529, 7649, 7648
7597, 7529, 7530, 7650, 7649
7598, 7530, 7531, 7651, 7650
7599, 7531, 7532, 7652, 7651
7600, 7532, 7533, 7653, 7652
7601, 7533, 7534, 7654, 7653
7602, 7534, 7535, 7655, 7654
7603, 7535, 7536, 7656, 7655
7604, 7536, 7537, 7657, 7656
7605, 7537, 7538, 7658, 7657
7606, 7538, 7539, 7659, 7658
7607, 7539, 7540, 7660, 7659
7608, 7540, 7421, 7541, 7660
7609, 7541, 7542, 7662, 7661
7610, 7542, 7543, 7663, 7662
7611, 7543, 7544, 7664, 7663
7612, 7544, 7545, 7665, 7664
7613, 7545, 7546, 7666, 7665
7614, 7546, 7547, 7667, 7666
7615, 7547, 7548, 7668, 7667
7616, 7548, 7549, 7669, 7668
7617, 7549, 7550, 7670, 7669
7618, 7550, 7551, 7671, 7670
7619, 7551, 7552, 7672, 7671
7620, 7552, 7553, 7673, 7672
7621, 7553, 7554, 7674, 7673
7622, 7554, 7555, 7675, 7674
7623, 7555, 7556, 7676, 7675
7624, 7556, 7557, 7677, 7676
7625, 7557, 7558, 7678, 7677
7626, 7558, 7559, 7679, 7678
7627, 7559, 7560, 7680, 7679
7628, 7560, 7561, 7681, 7680
7629, 7561, 7562, 7682, 7681
7630, 7562, 7563, 7683, 7682
7631, 7563, 7564, 7684, 7683
7632, 7564, 7565, 7685, 7684
7633, 7565, 7566, 7686, 7685
7634, 7566, 7567, 7687, 7686
7635, 7567, 7568, 7688, 7687
7636, 7568, 7569, 7689, 7688
7637, 7569, 7570, 7690, 7689
7638, 7570, 7571, 7691, 7690
7639, 7571, 7572, 7692, 7691
7640, 7572, 7573, 7693, 7692
7641, 7573, 7574, 7694, 7693
7642, 7574, 7575, 7695, 7694
7643, 7575, 7576, 7696, 7695
7644, 7576, 7577, 7697, 7696
7645, 7577, 7578, 7698, 7697
7646, 7578, 7579, 7699, 7698
7647, 7579, 7580, 7700, 7699
7648, 7580, 7581, 7701, 7700
7649, 7581, 7582, 7702, 7701
7650, 7582, 7583, 7703, 7702
7651, 7583, 7584, 7704, 7703
7652, 7584, 7585, 7705, 7704
7653, 7585, 7586, 7706, 7705
7654, 7586, 7587, 7707, 7706
7655, 7587, 7588, 7708, 7707
7656, 7588, 7589, 7709, 7708
7657, 7589, 7590, 7710, 7709
7658, 7590, 7591, 7711, 7710
7659, 7591, 7592, 7712, 7711
7660, 7592, 7593, 7713, 7712
7661, 7593, 7594, 7714, 7713
7662, 7594, 7595, 7715, 7714
7663, 7595, 7596, 7716, 7715
7664, 7596, 7597, 7717, 7716
7665, 7597, 7598, 7718, 7717
7666, 7598, 7599, 7719, 7718
7667, 7599, 7600, 7720, 7719
7668, 7600, 7601, 7721, 7720
7669, 7601, 7602, 7722, 7721
7670, 7602, 7603, 7723, 7722
7671, 7603, 7604, 7724, 7723
7672, 7604, 7605, 7725, 7724
7673, 7605, 7606, 7726, 7725
7674, 7606, 7607, 7727, 7726
7675, 7607, 7608, 7728, 7727
7676, 7608, 7609, 7729, 7728
7677, 7609, 7610, 7730, 7729
7678, 7610, 7611, 7731, 7730
7679, 7611, 7612, 7732, 7731
7680, 7612, 7613, 7733, 7732
7681, 7613, 7614, 7734, 7733
7682, 7614, 7615, 7735, 7734
7683, 7615, 7616, 7736, 7735
7684, 7616, 7617, 7737, 7736
7685, 7617, 7618, 7738, 7737
7686, 7618, 7619, 7739, 7738
7687, 7619, 7620, 7740, 7739
7688, 7620, 7621, 7741, 7740
7689, 7621, 7622, 7742, 7741
7690, 7622, 7623, 7743, 7742
7691, 7623, 7624, 7744, 7743
7692, 7624, 7625, 7745, 7744
7693, 7625, 7626, 7746, 7745
7694, 7626, 7627, 7747, 7746
7695, 7627, 7628, 7748, 7747
7696, 7628, 7629, 7749, 7748
7697, 7629, 7630, 7750, 7749
7698, 7630, 7631, 7751, 7750
7699, 7631, 7632, 7752, 7751
7700, 7632, 7633, 7753, 7752
7701, 7633, 7634, 7754, 7753
7702, 7634, 7635, 7755, 7754
7703, 7635, 7636, 7756, 7755
7704, 7636, 7637, 7757, 7756
7705, 7637, 7638, 7758, 7757
7706, 7638, 7639, 7759, 7758
7707, 7639, 7640, 7760, 7759
7708, 7640, 7641, 7761, 7760
7709, 7641, 7642, 7762, 7761
7710, 7642, 7643, 7763, 7762
7711, 7643, 7644, 7764, 7763
7712, 7644, 7645, 7765, 7764
7713, 7645, 7646, 7766, 7765
7714, 7646, 7647, 7767, 7766
7715, 7647, 7648, 7768, 7767
7716, 7648, 7649, 7769, 7768
7717, 7649, 7650, 7770, 7769
7718, 7650, 7651, 7771, 7770
7719, 7651, 7652, 7772, 7771
7720, 7652, 7653, 7773, 7772
7721, 7653, 7654, 7774, 7773
7722, 7654, 7655, 7775, 7774
7723, 7655, 7656, 7776, 7775
7724, 7656, 7657, 7777, 7776
7725, 7657, 7658, 7778, 7777
7726, 7658, 7659, 7779, 7778
7727, 7659, 7660, 7780, 7779
7728, 7660, 7541, 7661, 7780
7729, 7661, 7662, 7782, 7781
7730, 7662, 7663, 7783, 7782
7731, 7663, 7664, 7784, 7783
7732, 7664, 7665, 7785, 7784
7733, 7665, 7666, 7786, 7785
7734, 7666, 7667, 7787, 7786
7735, 7667, 7668, 7788, 7787
7736, 7668, 7669, 7789, 7788
7737, 7669, 7670, 7790, 7789
7738, 7670, 7671, 7791, 7790
7739, 7671, 7672, 7792, 7791
7740, 7672, 7673, 7793, 7792
7741, 7673, 7674, 7794, 7793
7742, 7674, 7675, 7795, 7794
7743, 7675, 7676, 7796, 7795
7744, 7676, 7677, 7797, 7796
7745, 7677, 7678, 7798, 7797
7746, 7678, 7679, 7799, 7798
7747, 7679, 7680, 7800, 7799
7748, 7680, 7681, 7801, 7800
7749, 7681, 7682, 7802, 7801
7750, 7682, 7683, 7803, 7802
7751, 7683, 7684, 7804, 7803
7752, 7684, 7685, 7805, 7804
7753, 7685, 7686, 7806, 7805
7754, 7686, 7687, 7807, 7806
7755, 7687, 7688, 7808, 7807
7756, 7688, 7689, 7809, 7808
7757, 7689, 7690, 7810, 7809
7758, 7690, 7691, 7811, 7810
7759, 7691, 7692, 7812, 7811
7760, 7692, 7693, 7813, 7812
7761, 7693, 7694, 7814, 7813
7762, 7694, 7695, 7815, 7814
7763, 7695, 7696, 7816, 7815
7764, 7696, 7697, 7817, 7816
7765, 7697, 7698, 7818, 7817
7766, 7698, 7699, 7819, 7818
7767, 7699, 7700, 7820, 7819
7768, 7700, 7701, 7821, 7820
7769, 7701, 7702, 7822, 7821
7770, 7702, 7703, 7823, 7822
7771, 7703, 7704, 7824, 7823
7772, 7704, 7705, 7825, 7824
7773, 7705, 7706, 7826, 7825
7774, 7706, 7707, 7827, 7826
7775, 7707, 7708, 7828, 7827
7776, 7708, 7709, 7829, 7828
7777, 7709, 7710, 7830, 7829
7778, 7710, 7711, 7831, 7830
7779, 7711, 7712, 7832, 7831
7780, 7712, 7713, 7833, 7832
7781, 7713, 7714, 7834, 7833
7782, 7714, 7715, 7835, 7834
7783, 7715, 7716, 7836, 7835
7784, 7716, 7717, 7837, 7836
7785, 7717, 7718, 7838, 7837
7786, 7718, 7719, 7839, 7838
7787, 7719, 7720, 7840, 7839
7788, 7720, 7721, 7841, 7840
7789, 7721, 7722, 7842, 7841
7790, 7722, 7723, 7843, 7842
7791, 7723, 7724, 7844, 7843
7792, 7724, 7725, 7845, 7844
7793, 7725, 7726, 7846, 7845
7794, 7726, 7727, 7847, 7846
7795, 7727, 7728, 7848, 7847
7796, 7728, 7729, 7849, 7848
7797, 7729, 7730, 7850, 7849
7798, 7730, 7731, 7851, 7850
7799, 7731, 7732, 7852, 7851
7800, 7732, 7733, 7853, 7852
7801, 7733, 7734, 7854, 7853
7802, 7734, 7735, 7855, 7854
7803, 7735, 7736, 7856, 7855
7804, 7736, 7737, 7857, 7856
7805, 7737, 7738, 7858, 7857
7806, 7738, 7739, 7859, 7858
7807, 7739, 7740, 7860, 7859
7808, 7740, 7741, 7861, 7860
7809, 7741, 7742, 7862, 7861
7810, 7742, 7743, 7863, 7862
7811, 7743, 7744, 7864, 7863
7812, 7744, 7745, 7865, 7864
7813, 7745, 7746, 7866, 7865
7814, 7746, 7747, 7867, 7866
7815, 7747, 7748, 7868, 7867
7816, 7748, 7749, 7869, 7868
7817, 7749, 7750, 7870, 7869
7818, 7750, 7751, 7871, 7870
7819, 7751, 7752, 7872, 7871
7820, 7752, 7753, 7873, 7872
7821, 7753, 7754, 7874, 7873
7822, 7754, 7755, 7875, 7874
7823, 7755, 7756, 7876, 7875
7824, 7756, 7757, 7877, 7876
7825, 7757, 7758, 7878, 7877
7826, 7758, 7759, 7879, 7878
7827, 7759, 7760, 7880, 7879
7828, 7760, 7761, 7881, 7880
7829, 7761, 7762, 7882, 7881
7830, 7762, 7763, 7883, 7882
7831, 7763, 7764, 7884, 7883
7832, 7764, 7765, 7885, 7884
7833, 7765, 7766, 7886, 7885
7834, 7766, 7767, 7887, 7886
7835, 7767, 7768, 7888, 7887
7836, 7768, 7769, 7889, 7888
7837, 7769, 7770, 7890, 7889
7838, 7770, 7771, 7891, 7890
7839, 7771, 7772, 7892, 7891
7840, 7772, 7773, 7893, 7892
7841, 7773, 7774, 7894, 7893
7842, 7774, 7775, 7895, 7894
7843, 7775, 7776, 7896, 7895
7844, 7776, 7777, 7897, 7896
7845, 7777, 7778, 7898, 7897
7846, 7778, 7779, 7899, 7898
7847, 7779, 7780, 7900, 7899
7848, 7780, 7661, 7781, 7900
7849, 7781, 7782, 7902, 7901
7850, 7782, 7783, 7903, 7902
7851, 7783, 7784, 7904, 7903
7852, 7784, 7785, 7905, 7904
7853, 7785, 7786, 7906, 7905
7854, 7786, 7787, 7907, 7906
7855, 7787, 7788, 7908, 7907
7856, 7788, 7789, 7909, 7908
7857, 7789, 7790, 7910, 7909
7858, 7790, 7791, 7911, 7910
7859, 7791, 7792, 7912, 7911
7860, 7792, 7793, 7913, 7912
7861, 7793, 7794, 7914, 7913
7862, 7794, 7795, 7915, 7914
7863, 7795, 7796, 7916, 7915
7864, 7796, 7797, 7917, 7916
7865, 7797, 7798, 7918, 7917
7866, 7798, 7799, 7919, 7918
7867, 7799, 7800, 7920, 7919
7868, 7800, 7801, 7921, 7920
7869, 7801, 7802, 7922, 7921
7870, 7802, 7803, 7923, 7922
7871, 7803, 7804, 7924, 7923
7872, 7804, 7805, 7925, 7924
7873, 7805, 7806, 7926, 7925
7874, 7806, 7807, 7927, 7926
7875, 7807, 7808, 7928, 7927
7876, 7808, 7809, 7929, 7928
7877, 7809, 7810, 7930, 7929
7878, 7810, 7811, 7931, 7930
7879, 7811, 7812, 7932, 7931
7880, 7812, 7813, 7933, 7932
7881, 7813, 7814, 7934, 7933
7882, 7814, 7815, 7935, 7934
7883, 7815, 7816, 7936, 7935
7884, 7816, 7817, 7937, 7936
7885, 7817, 7818, 7938, 7937
7886, 7818, 7819, 7939, 7938
7887, 7819, 7820, 7940, 7939
7888, 7820, 7821, 7941, 7940
7889, 7821, 7822, 7942, 7941
7890, 7822, 7823, 7943, 7942
7891, 7823, 7824, 7944, 7943
7892, 7824, 7825, 7945, 7944
7893, 7825, 7826, 7946, 7945
7894, 7826, 7827, 7947, 7946
7895, 7827, 7828, 7948, 7947
7896, 7828, 7829, 7949, 7948
7897, 7829, 7830, 7950, 7949
7898, 7830, 7831, 7951, 7950
7899, 7831, 7832, 7952, 7951
7900, 7832, 7833, 7953, 7952
7901, 7833, 7834, 7954, 7953
7902, 7834, 7835, 7955, 7954
7903, 7835, 7836, 7956, 7955
7904, 7836, 7837, 7957, 7956
7905, 7837, 7838, 7958, 7957
7906, 7838, 7839, 7959, 7958
7907, 7839, 7840, 7960, 7959
7908, 7840, 7841, 7961, 7960
7909, 7841, 7842, 7962, 7961
7910, 7842, 7843, 7963, 7962
7911, 7843, 7844, 7964, 7963
7912, 7844, 7845, 7965, 7964
7913, 7845, 7846, 7966, 7965
7914, 7846, 7847, 7967, 7966
7915, 7847, 7848, 7968, 7967
7916, 7848, 7849, 7969, 7968
7917, 7849, 7850, 7970, 7969
7918, 7850, 7851, 7971, 7970
7919, 7851, 7852, 7972, 7971
7920, 7852, 7853, 7973, 7972
7921, 7853, 7854, 7974, 7973
7922, 7854, 7855, 7975, 7974
7923, 7855, 7856, 7976, 7975
7924, 7856, 7857, 7977, 7976
7925, 7857, 7858, 7978, 7977
7926, 7858, 7859, 7979, 7978
7927, 7859, 7860, 7980, 7979
7928, 7860, 7861, 7981, 7980
7929, 7861, 7862, 7982, 7981
7930, 7862, 7863, 7983, 7982
7931, 7863, 7864, 7984, 7983
7932, 7864, 7865, 7985, 7984
7933, 7865, 7866, 7986, 7985
7934, 7866, 7867, 7987, 7986
7935, 7867, 7868, 7988, 7987
7936, 7868, 7869, 7989, 7988
7937, 7869, 7870, 7990, 7989
7938, 7870, 7871, 7991, 7990
7939, 7871, 7872, 7992, 7991
7940, 7872, 7873, 7993, 7992
7941, 7873, 7874, 7994, 7993
7942, 7874, 7875, 7995, 7994
7943, 7875, 7876, 7996, 7995
7944, 7876, 7877, 7997, 7996
7945, 7877, 7878, 7998, 7997
7946, 7878, 7879, 7999, 7998
7947, 7879, 7880, 8000, 7999
7948, 7880, 7881, 8001, 8000
7949, 7881, 7882, 8002, 8001
7950, 7882, 7883, 8003, 8002
7951, 7883, 7884, 8004, 8003
7952, 7884, 7885, 8005, 8004
7953, 7885, 7886, 8006, 8005
7954, 7886, 7887, 8007, 8006
7955, 7887, 7888, 8008, 8007
7956, 7888, 7889, 8009, 8008
7957, 7889, 7890, 8010, 8009
7958, 7890, 7891, 8011, 8010
7959, 7891, 7892, 8012, 8011
7960, 7892, 7893, 8013, 8012
7961, 7893, 7894, 8014, 8013
7962, 7894, 7895, 8015, 8014
7963, 7895, 7896, 8016, 8015
7964, 7896, 7897, 8017, 8016
7965, 7897, 7898, 8018, 8017
7966, 7898, 7899, 8019, 8018
7967, 7899, 7900, 8020, 8019
7968, 7900, 7781, 7901, 8020
7969, 7901, 7902, 8022, 8021
7970, 7902, 7903, 8023, 8022
7971, 7903, 7904, 8024, 8023
7972, 7904, 7905, 8025, 8024
7973, 7905, 7906, 8026, 8025
7974, 7906, 7907, 8027, 8026
7975, 7907, 7908, 8028, 8027
7976, 7908, 7909, 8029, 8028
7977, 7909, 7910, 8030, 8029
7978, 7910, 7911, 8031, 8030
7979, 7911, 7912, 8032, 8031
7980, 7912, 7913, 8033, 8032
7981, 7913, 7914, 8034, 8033
7982, 7914, 7915, 8035, 8034
7983, 7915, 7916, 8036, 8035
7984, 7916, 7917, 8037, 8036
7985, 7917, 7918, 8038, 8037
7986, 7918, 7919, 8039, 8038
7987, 7919, 7920, 8040, 8039
7988, 7920, 7921, 8041, 8040
7989, 7921, 7922, 8042, 8041
7990, 7922, 7923, 8043, 8042
7991, 7923, 7924, 8044, 8043
7992, 7924, 7925, 8045, 8044
7993, 7925, 7926, 8046, 8045
7994, 7926, 7927, 8047, 8046
7995, 7927, 7928, 8048, 8047
7996, 7928, 7929, 8049, 8048
7997, 7929, 7930, 8050, 8049
7998, 7930, 7931, 8051, 8050
7999, 7931, 7932, 8052, 8051
8000, 7932, 7933, 8053, 8052
8001, 7933, 7934, 8054, 8053
8002, 7934, 7935, 8055, 8054
8003, 7935, 7936, 8056, 8055
8004, 7936, 7937, 8057, 8056
8005, 7937, 7938, 8058, 8057
8006, 7938, 7939, 8059, 8058
8007, 7939, 7940, 8060, 8059
8008, 7940, 7941, 8061, 8060
8009, 7941, 7942, 8062, 8061
8010, 7942, 7943, 8063, 8062
8011, 7943, 7944, 8064, 8063
8012, 7944, 7945, 8065, 8064
8013, 7945, 7946, 8066, 8065
8014, 7946, 7947, 8067, 8066
8015, 7947, 7948, 8068, 8067
8016, 7948, 7949, 8069, 8068
8017, 7949, 7950, 8070, 8069
8018, 7950, 7951, 8071, 8070
8019, 7951, 7952, 8072, 8071
8020, 7952, 7953, 8073, 8072
8021, 7953, 7954, 8074, 8073
8022, 7954, 7955, 8075, 8074
8023, 7955, 7956, 8076, 8075
8024, 7956, 7957, 8077, 8076
8025, 7957, 7958, 8078, 8077
8026, 7958, 7959, 8079, 8078
8027, 7959, 7960, 8080, 8079
8028, 7960, 7961, 8081, 8080
8029, 7961, 7962, 8082, 8081
8030, 7962, 7963, 8083, 8082
8031, 7963, 7964, 8084, 8083
8032, 7964, 7965, 8085, 8084
8033, 7965, 7966, 8086, 8085
8034, 7966, 7967, 8087, 8086
8035, 7967, 7968, 8088, 8087
8036, 7968, 7969, 8089, 8088
8037, 7969, 7970, 8090, 8089
8038, 7970, 7971, 8091, 8090
8039, 7971, 7972, 8092, 8091
8040, 7972, 7973, 8093, 8092
8041, 7973, 7974, 8094, 8093
8042, 7974, 7975, 8095, 8094
8043, 7975, 7976, 8096, 8095
8044, 7976, 7977, 8097, 8096
8045, 7977, 7978, 8098, 8097
8046, 7978, 7979, 8099, 8098
8047, 7979, 7980, 8100, 8099
8048, 7980, 7981, 8101, 8100
8049, 7981, 7982, 8102, 8101
8050, 7982, 7983, 8103, 8102
8051, 7983, 7984, 8104, 8103
8052, 7984, 7985, 8105, 8104
8053, 7985, 7986, 8106, 8105
8054, 7986, 7987, 8107, 8106
8055, 7987, 7988, 8108, 8107
8056, 7988, 7989, 8109, 8108
8057, 7989, 7990, 8110, 8109
8058, 7990, 7991, 8111, 8110
8059, 7991, 7992, 8112, 8111
8060, 7992, 7993, 8113, 8112
8061, 7993, 7994, 8114, 8113
8062, 7994, 7995, 8115, 8114
8063, 7995, 7996, 8116, 8115
8064, 7996, 7997, 8117, 8116
8065, 7997, 7998, 8118, 8117
8066, 7998, 7999, 8119, 8118
8067, 7999, 8000, 8120, 8119
8068, 8000, 8001, 8121, 8120
8069, 8001, 8002, 8122, 8121
8070, 8002, 8003, 8123, 8122
8071, 8003, 8004, 8124, 8123
8072, 8004, 8005, 8125, 8124
8073, 8005, 8006, 8126, 8125
8074, 8006, 8007, 8127, 8126
8075, 8007, 8008, 8128, 8127
8076, 8008, 8009, 8129, 8128
8077, 8009, 8010, 8130, 8129
8078, 8010, 8011, 8131, 8130
8079, 8011, 8012, 8132, 8131
8080, 8012, 8013, 8133, 8132
8081, 8013, 8014, 8134, 8133
8082, 8014, 8015, 8135, 8134
8083, 8015, 8016, 8136, 8135
8084, 8016, 8017, 8137, 8136
8085, 8017, 8018, 8138, 8137
8086, 8018, 8019, 8139, 8138
8087, 8019, 8020, 8140, 8139
8088, 8020, 7901, 8021, 8140
8089, 8021, 8022, 8142, 8141
8090, 8022, 8023, 8143, 8142
8091, 8023, 8024, 8144, 8143
8092, 8024, 8025, 8145, 8144
8093, 8025, 8026, 8146, 8145
8094, 8026, 8027, 8147, 8146
8095, 8027, 8028, 8148, 8147
8096, 8028, 8029, 8149, 8148
8097, 8029, 8030, 8150, 8149
8098, 8030, 8031, 8151, 8150
8099, 8031, 8032, 8152, 8151
8100, 8032, 8033, 8153, 8152
8101, 8033, 8034, 8154, 8153
8102, 8034, 8035, 8155, 8154
8103, 8035, 8036, 8156, 8155
8104, 8036, 8037, 8157, 8156
8105, 8037, 8038, 8158, 8157
8106, 8038, 8039, 8159, 8158
8107, 8039, 8040, 8160, 8159
8108, 8040, 8041, 8161, 8160
8109, 8041, 8042, 8162, 8161
8110, 8042, 8043, 8163, 8162
8111, 8043, 8044, 8164, 8163
8112, 8044, 8045, 8165, 8164
8113, 8045, 8046, 8166, 8165
8114, 8046, 8047, 8167, 8166
8115, 8047, 8048, 8168, 8167
8116, 8048, 8049, 8169, 8168
8117, 8049, 8050, 8170, 8169
8118, 8050, 8051, 8171, 8170
8119, 8051, 8052, 8172, 8171
8120, 8052, 8053, 8173, 8172
8121, 8053, 8054, 8174, 8173
8122, 8054, 8055, 8175, 8174
8123, 8055, 8056, 8176, 8175
8124, 8056, 8057, 8177, 8176
8125, 8057, 8058, 8178, 8177
8126, 8058, 8059, 8179, 8178
8127, 8059, 8060, 8180, 8179
8128, 8060, 8061, 8181, 8180
8129, 8061, 8062, 8182, 8181
8130, 8062, 8063, 8183, 8182
8131, 8063, 8064, 8184, 8183
8132, 8064, 8065, 8185, 8184
8133, 8065, 8066, 8186, 8185
8134, 8066, 8067, 8187, 8186
8135, 8067, 8068, 8188, 8187
8136, 8068, 8069, 8189, 8188
8137, 8069, 8070, 8190, 8189
8138, 8070, 8071, 8191, 8190
8139, 8071, 8072, 8192, 8191
8140, 8072, 8073, 8193, 8192
8141, 8073, 8074, 8194, 8193
8142, 8074, 8075, 8195, 8194
8143, 8075, 8076, 8196, 8195
8144, 8076, 8077, 8197, 8196
8145, 8077, 8078, 8198, 8197
8146, 8078, 8079, 8199, 8198
8147, 8079, 8080, 8200, 8199
8148, 8080, 8081, 8201, 8200
8149, 8081, 8082, 8202, 8201
8150, 8082, 8083, 8203, 8202
8151, 8083, 8084, 8204, 8203
8152, 8084, 8085, 8205, 8204
8153, 8085, 8086, 8206, 8205
8154, 8086, 8087, 8207, 8206
8155, 8087, 8088, 8208, 8207
8156, 8088, 8089, 8209, 8208
8157, 8089, 8090, 8210, 8209
8158, 8090, 8091, 8211, 8210
8159, 8091, 8092, 8212, 8211
8160, 8092, 8093, 8213, 8212
8161, 8093, 8094, 8214, 8213
8162, 8094, 8095, 8215, 8214
8163, 8095, 8096, 8216, 8215
8164, 8096, 8097, 8217, 8216
8165, 8097, 8098, 8218, 8217
8166, 8098, 8099, 8219, 8218
8167, 8099, 8100, 8220, 8219
8168, 8100, 8101, 8221, 8220
8169, 8101, 8102, 8222, 8221
8170, 8102, 8103, 8223, 8222
8171, 8103, 8104, 8224, 8223
8172, 8104, 8105, 8225, 8224
8173, 8105, 8106, 8226, 8225
8174, 8106, 8107, 8227, 8226
8175, 8107, 8108, 8228, 8227
8176, 8108, 8109, 8229, 8228
8177, 8109, 8110, 8230, 8229
8178, 8110, 8111, 8231, 8230
8179, 8111, 8112, 8232, 8231
8180, 8112, 8113, 8233, 8232
8181, 8113, 8114, 8234, 8233
8182, 8114, 8115, 8235, 8234
8183, 8115, 8116, 8236, 8235
8184, 8116, 8117, 8237, 8236
8185, 8117, 8118, 8238, 8237
8186, 8118, 8119, 8239, 8238
8187, 8119, 8120, 8240, 8239
8188, 8120, 8121, 8241, 8240
8189, 8121, 8122, 8242, 8241
8190, 8122, 8123, 8243, 8242
8191, 8123, 8124, 8244, 8243
8192, 8124, 8125, 8245, 8244
8193, 8125, 8126, 8246, 8245
8194, 8126, 8127, 8247, 8246
8195, 8127, 8128, 8248, 8247
8196, 8128, 8129, 8249, 8248
8197, 8129, 8130, 8250, 8249
8198, 8130, 8131, 8251, 8250
8199, 8131, 8132, 8252, 8251
8200, 8132, 8133, 8253, 8252
8201, 8133, 8134, 8254, 8253
8202, 8134, 8135, 8255, 8254
8203, 8135, 8136, 8256, 8255
8204, 8136, 8137, 8257, 8256
8205, 8137, 8138, 8258, 8257
8206, 8138, 8139, 8259, 8258
8207, 8139, 8140, 8260, 8259
8208, 8140, 8021, 8141, 8260
8209, 8141, 8142, 8262, 8261
8210, 8142, 8143, 8263, 8262
8211, 8143, 8144, 8264, 8263
8212, 8144, 8145, 8265, 8264
8213, 8145, 8146, 8266, 8265
8214, 8146, 8147, 8267, 8266
8215, 8147, 8148, 8268, 8267
8216, 8148, 8149, 8269, 8268
8217, 8149, 8150, 8270, 8269
8218, 8150, 8151, 8271, 8270
8219, 8151, 8152, 8272, 8271
8220, 8152, 8153, 8273, 8272
8221, 8153, 8154, 8274, 8273
8222, 8154, 8155, 8275, 8274
8223, 8155, 8156, 8276, 8275
8224, 8156, 8157, 8277, 8276
8225, 8157, 8158, 8278, 8277
8226, 8158, 8159, 8279, 8278
8227, 8159, 8160, 8280, 8279
8228, 8160, 8161, 8281, 8280
8229, 8161, 8162, 8282, 8281
8230, 8162, 8163, 8283, 8282
8231, 8163, 8164, 8284, 8283
8232, 8164, 8165, 8285, 8284
8233, 8165, 8166, 8286, 8285
8234, 8166, 8167, 8287, 8286
8235, 8167, 8168, 8288, 8287
8236, 8168, 8169, 8289, 8288
8237, 8169, 8170, 8290, 8289
8238, 8170, 8171, 8291, 8290
8239, 8171, 8172, 8292, 8291
8240, 8172, 8173, 8293, 8292
8241, 8173, 8174, 8294, 8293
8242, 8174, 8175, 8295, 8294
8243, 8175, 8176, 8296, 8295
8244, 8176, 8177, 8297, 8296
8245, 8177, 8178, 8298, 8297
8246, 8178, 8179, 8299, 8298
8247, 8179, 8180, 8300, 8299
8248, 8180, 8181, 8301, 8300
8249, 8181, 8182, 8302, 8301
8250, 8182, 8183, 8303, 8302
8251, 8183, 8184, 8304, 8303
8252, 8184, 8185, 8305, 8304
8253, 8185, 8186, 8306, 8305
8254, 8186, 8187, 8307, 8306
8255, 8187, 8188, 8308, 8307
8256, 8188, 8189, 8309, 8308
8257, 8189, 8190, 8310, 8309
8258, 8190, 8191, 8311, 8310
8259, 8191, 8192, 8312, 8311
8260, 8192, 8193, 8313, 8312
8261, 8193, 8194, 8314, 8313
8262, 8194, 8195, 8315, 8314
8263, 8195, 8196, 8316, 8315
8264, 8196, 8197, 8317, 8316
8265, 8197, 8198, 8318, 8317
8266, 8198, 8199, 8319, 8318
8267, 8199, 8200, 8320, 8319
8268, 8200, 8201, 8321, 8320
8269, 8201, 8202, 8322, 8321
8270, 8202, 8203, 8323, 8322
8271, 8203, 8204, 8324, 8323
8272, 8204, 8205, 8325, 8324
8273, 8205, 8206, 8326, 8325
8274, 8206, 8207, 8327, 8326
8275, 8207, 8208, 8328, 8327
8276, 8208, 8209, 8329, 8328
8277, 8209, 8210, 8330, 8329
8278, 8210, 8211, 8331, 8330
8279, 8211, 8212, 8332, 8331
8280, 8212, 8213, 8333, 8332
8281, 8213, 8214, 8334, 8333
8282, 8214, 8215, 8335, 8334
8283, 8215, 8216, 8336, 8335
8284, 8216, 8217, 8337, 8336
8285, 8217, 8218, 8338, 8337
8286, 8218, 8219, 8339, 8338
8287, 8219, 8220, 8340, 8339
8288, 8220, 8221, 8341, 8340
8289, 8221, 8222, 8342, 8341
8290, 8222, 8223, 8343, 8342
8291, 8223, 8224, 8344, 8343
8292, 8224, 8225, 8345, 8344
8293, 8225, 8226, 8346, 8345
8294, 8226, 8227, 8347, 8346
8295, 8227, 8228, 8348, 8347
8296, 8228, 8229, 8349, 8348
8297, 8229, 8230, 8350, 8349
8298, 8230, 8231, 8351, 8350
8299, 8231, 8232, 8352, 8351
8300, 8232, 8233, 8353, 8352
8301, 8233, 8234, 8354, 8353
8302, 8234, 8235, 8355, 8354
8303, 8235, 8236, 8356, 8355
8304, 8236, 8237, 8357, 8356
8305, 8237, 8238, 8358, 8357
8306, 8238, 8239, 8359, 8358
8307, 8239, 8240, 8360, 8359
8308, 8240, 8241, 8361, 8360
8309, 8241, 8242, 8362, 8361
8310, 8242, 8243, 8363, 8362
8311, 8243, 8244, 8364, 8363
8312, 8244, 8245, 8365, 8364
8313, 8245, 8246, 8366, 8365
8314, 8246, 8247, 8367, 8366
8315, 8247, 8248, 8368, 8367
8316, 8248, 8249, 8369, 8368
8317, 8249, 8250, 8370, 8369
8318, 8250, 8251, 8371, 8370
8319, 8251, 8252, 8372, 8371
8320, 8252, 8253, 8373, 8372
8321, 8253, 8254, 8374, 8373
8322, 8254, 8255, 8375, 8374
8323, 8255, 8256, 8376, 8375
8324, 8256, 8257, 8377, 8376
8325, 8257, 8258, 8378, 8377
8326, 8258, 8259, 8379, 8378
8327, 8259, 8260, 8380, 8379
8328, 8260, 8141, 8261, 8380
8329, 8261, 8262, 8382, 8381
8330, 8262, 8263, 8383, 8382
8331, 8263, 8264, 8384, 8383
8332, 8264, 8265, 8385, 8384
8333, 8265, 8266, 8386, 8385
8334, 8266, 8267, 8387, 8386
8335, 8267, 8268, 8388, 8387
8336, 8268, 8269, 8389, 8388
8337, 8269, 8270, 8390, 8389
8338, 8270, 8271, 8391, 8390
8339, 8271, 8272, 8392, 8391
8340, 8272, 8273, 8393, 8392
8341, 8273, 8274, 8394, 8393
8342, 8274, 8275, 8395, 8394
8343, 8275, 8276, 8396, 8395
8344, 8276, 8277, 8397, 8396
8345, 8277, 8278, 8398, 8397
8346, 8278, 8279, 8399, 8398
8347, 8279, 8280, 8400, 8399
8348, 8280, 8281, 8401, 8400
8349, 8281, 8282, 8402, 8401
8350, 8282, 8283, 8403, 8402
8351, 8283, 8284, 8404, 8403
8352, 8284, 8285, 8405, 8404
8353, 8285, 8286, 8406, 8405
8354, 8286, 8287, 8407, 8406
8355, 8287, 8288, 8408, 8407
8356, 8288, 8289, 8409, 8408
8357, 8289, 8290, 8410, 8409
8358, 8290, 8291, 8411, 8410
8359, 8291, 8292, 8412, 8411
8360, 8292, 8293, 8413, 8412
8361, 8293, 8294, 8414, 8413
8362, 8294, 8295, 8415, 8414
8363, 8295, 8296, 8416, 8415
8364, 8296, 8297, 8417, 8416
8365, 8297, 8298, 8418, 8417
8366, 8298, 8299, 8419, 8418
8367, 8299, 8300, 8420, 8419
8368, 8300, 8301, 8421, 8420
8369, 8301, 8302, 8422, 8421
8370, 8302, 8303, 8423, 8422
8371, 8303, 8304, 8424, 8423
8372, 8304, 8305, 8425, 8424
8373, 8305, 8306, 8426, 8425
8374, 8306, 8307, 8427, 8426
8375, 8307, 8308, 8428, 8427
8376, 8308, 8309, 8429, 8428
8377, 8309, 8310, 8430, 8429
8378, 8310, 8311, 8431, 8430
8379, 8311, 8312, 8432, 8431
8380, 8312, 8313, 8433, 8432
8381, 8313, 8314, 8434, 8433
8382, 8314, 8315, 8435, 8434
8383, 8315, 8316, 8436, 8435
8384, 8316, 8317, 8437, 8436
8385, 8317, 8318, 8438, 8437
8386, 8318, 8319, 8439, 8438
8387, 8319, 8320, 8440, 8439
8388, 8320, 8321, 8441, 8440
8389, 8321, 8322, 8442, 8441
8390, 8322, 8323, 8443, 8442
8391, 8323, 8324, 8444, 8443
8392, 8324, 8325, 8445, 8444
8393, 8325, 8326, 8446, 8445
8394, 8326, 8327, 8447, 8446
8395, 8327, 8328, 8448, 8447
8396, 8328, 8329, 8449, 8448
8397, 8329, 8330, 8450, 8449
8398, 8330, 8331, 8451, 8450
8399, 8331, 8332, 8452, 8451
8400, 8332, 8333, 8453, 8452
8401, 8333, 8334, 8454, 8453
8402, 8334, 8335, 8455, 8454
8403, 8335, 8336, 8456, 8455
8404, 8336, 8337, 8457, 8456
8405, 8337, 8338, 8458, 8457
8406, 8338, 8339, 8459, 8458
8407, 8339, 8340, 8460, 8459
8408, 8340, 8341, 8461, 8460
8409, 8341, 8342, 8462, 8461
8410, 8342, 8343, 8463, 8462
8411, 8343, 8344, 8464, 8463
8412, 8344, 8345, 8465, 8464
8413, 8345, 8346, 8466, 8465
8414, 8346, 8347, 8467, 8466
8415, 8347, 8348, 8468, 8467
8416, 8348, 8349, 8469, 8468
8417, 8349, 8350, 8470, 8469
8418, 8350, 8351, 8471, 8470
8419, 8351, 8352, 8472, 8471
8420, 8352, 8353, 8473, 8472
8421, 8353, 8354, 8474, 8473
8422, 8354, 8355, 8475, 8474
8423, 8355, 8356, 8476, 8475
8424, 8356, 8357, 8477, 8476
8425, 8357, 8358, 8478, 8477
8426, 8358, 8359, 8479, 8478
8427, 8359, 8360, 8480, 8479
8428, 8360, 8361, 8481, 8480
8429, 8361, 8362, 8482, 8481
8430, 8362, 8363, 8483, 8482
8431, 8363, 8364, 8484, 8483
8432, 8364, 8365, 8485, 8484
8433, 8365, 8366, 8486, 8485
8434, 8366, 8367, 8487, 8486
8435, 8367, 8368, 8488, 8487
8436, 8368, 8369, 8489, 8488
8437, 8369, 8370, 8490, 8489
8438, 8370, 8371, 8491, 8490
8439, 8371, 8372, 8492, 8491
8440, 8372, 8373, 8493, 8492
8441, 8373, 8374, 8494, 8493
8442, 8374, 8375, 8495, 8494
8443, 8375, 8376, 8496, 8495
8444, 8376, 8377, 8497, 8496
8445, 8377, 8378, 8498, 8497
8446, 8378, 8379, 8499, 8498
8447, 8379, 8380, 8500, 8499
8448, 8380, 8261, 8381, 8500
8449, 8381, 8382, 8502, 8501
8450, 8382, 8383, 8503, 8502
8451, 8383, 8384, 8504, 8503
8452, 8384, 8385, 8505, 8504
8453, 8385, 8386, 8506, 8505
8454, 8386, 8387, 8507, 8506
8455, 8387, 8388, 8508, 8507
8456, 8388, 8389, 8509, 8508
8457, 8389, 8390, 8510, 8509
8458, 8390, 8391, 8511, 8510
8459, 8391, 8392, 8512, 8511
8460, 8392, 8393, 8513, 8512
8461, 8393, 8394, 8514, 8513
8462, 8394, 8395, 8515, 8514
8463, 8395, 8396, 8516, 8515
8464, 8396, 8397, 8517, 8516
8465, 8397, 8398, 8518, 8517
8466, 8398, 8399, 8519, 8518
8467, 8399, 8400, 8520, 8519
8468, 8400, 8401, 8521, 8520
8469, 8401, 8402, 8522, 8521
8470, 8402, 8403, 8523, 8522
8471, 8403, 8404, 8524, 8523
8472, 8404, 8405, 8525, 8524
8473, 8405, 8406, 8526, 8525
8474, 8406, 8407, 8527, 8526
8475, 8407, 8408, 8528, 8527
8476, 8408, 8409, 8529, 8528
8477, 8409, 8410, 8530, 8529
8478, 8410, 8411, 8531, 8530
8479, 8411, 8412, 8532, 8531
8480, 8412, 8413, 8533, 8532
8481, 8413, 8414, 8534, 8533
8482, 8414, 8415, 8535, 8534
8483, 8415, 8416, 8536, 8535
8484, 8416, 8417, 8537, 8536
8485, 8417, 8418, 8538, 8537
8486, 8418, 8419, 8539, 8538
8487, 8419, 8420, 8540, 8539
8488, 8420, 8421, 8541, 8540
8489, 8421, 8422, 8542, 8541
8490, 8422, 8423, 8543, 8542
8491, 8423, 8424, 8544, 8543
8492, 8424, 8425, 8545, 8544
8493, 8425, 8426, 8546, 8545
8494, 8426, 8427, 8547, 8546
8495, 8427, 8428, 8548, 8547
8496, 8428, 8429, 8549, 8548
8497, 8429, 8430, 8550, 8549
8498, 8430, 8431, 8551, 8550
8499, 8431, 8432, 8552, 8551
8500, 8432, 8433, 8553, 8552
8501, 8433, 8434, 8554, 8553
8502, 8434, 8435, 8555, 8554
8503, 8435, 8436, 8556, 8555
8504, 8436, 8437, 8557, 8556
8505, 8437, 8438, 8558, 8557
8506, 8438, 8439, 8559, 8558
8507, 8439, 8440, 8560, 8559
8508, 8440, 8441, 8561, 8560
8509, 8441, 8442, 8562, 8561
8510, 8442, 8443, 8563, 8562
8511, 8443, 8444, 8564, 8563
8512, 8444, 8445, 8565, 8564
8513, 8445, 8446, 8566, 8565
8514, 8446, 8447, 8567, 8566
8515, 8447, 8448, 8568, 8567
8516, 8448, 8449, 8569, 8568
8517, 8449, 8450, 8570, 8569
8518, 8450, 8451, 8571, 8570
8519, 8451, 8452, 8572, 8571
8520, 8452, 8453, 8573, 8572
8521, 8453, 8454, 8574, 8573
8522, 8454, 8455, 8575, 8574
8523, 8455, 8456, 8576, 8575
8524, 8456, 8457, 8577, 8576
8525, 8457, 8458, 8578, 8577
8526, 8458, 8459, 8579, 8578
8527, 8459, 8460, 8580, 8579
8528, 8460, 8461, 8581, 8580
8529, 8461, 8462, 8582, 8581
8530, 8462, 8463, 8583, 8582
8531, 8463, 8464, 8584, 8583
8532, 8464, 8465, 8585, 8584
8533, 8465, 8466, 8586, 8585
8534, 8466, 8467, 8587, 8586
8535, 8467, 8468, 8588, 8587
8536, 8468, 8469, 8589, 8588
8537, 8469, 8470, 8590, 8589
8538, 8470, 8471, 8591, 8590
8539, 8471, 8472, 8592, 8591
8540, 8472, 8473, 8593, 8592
8541, 8473, 8474, 8594, 8593
8542, 8474, 8475, 8595, 8594
8543, 8475, 8476, 8596, 8595
8544, 8476, 8477, 8597, 8596
8545, 8477, 8478, 8598, 8597
8546, 8478, 8479, 8599, 8598
8547, 8479, 8480, 8600, 8599
8548, 8480, 8481, 8601, 8600
8549, 8481, 8482, 8602, 8601
8550, 8482, 8483, 8603, 8602
8551, 8483, 8484, 8604, 8603
8552, 8484, 8485, 8605, 8604
8553, 8485, 8486, 8606, 8605
8554, 8486, 8487, 8607, 8606
8555, 8487, 8488, 8608, 8607
8556, 8488, 8489, 8609, 8608
8557, 8489, 8490, 8610, 8609
8558, 8490, 8491, 8611, 8610
8559, 8491, 8492, 8612, 8611
8560, 8492, 8493, 8613, 8612
8561, 8493, 8494, 8614, 8613
8562, 8494, 8495, 8615, 8614
8563, 8495, 8496, 8616, 8615
8564, 8496, 8497, 8617, 8616
8565, 8497, 8498, 8618, 8617
8566, 8498, 8499, 8619, 8618
8567, 8499, 8500, 8620, 8619
8568, 8500, 8381, 8501, 8620
8569, 8501, 8502, 8622, 8621
8570, 8502, 8503, 8623, 8622
8571, 8503, 8504, 8624, 8623
8572, 8504, 8505, 8625, 8624
8573, 8505, 8506, 8626, 8625
8574, 8506, 8507, 8627, 8626
8575, 8507, 8508, 8628, 8627
8576, 8508, 8509, 8629, 8628
8577, 8509, 8510, 8630, 8629
8578, 8510, 8511, 8631, 8630
8579, 8511, 8512, 8632, 8631
8580, 8512, 8513, 8633, 8632
8581, 8513, 8514, 8634, 8633
8582, 8514, 8515, 8635, 8634
8583, 8515, 8516, 8636, 8635
8584, 8516, 8517, 8637, 8636
8585, 8517, 8518, 8638, 8637
8586, 8518, 8519, 8639, 8638
8587, 8519, 8520, 8640, 8639
8588, 8520, 8521, 8641, 8640
8589, 8521, 8522, 8642, 8641
8590, 8522, 8523, 8643, 8642
8591, 8523, 8524, 8644, 8643
8592, 8524, 8525, 8645, 8644
8593, 8525, 8526, 8646, 8645
8594, 8526, 8527, 8647, 8646
8595, 8527, 8528, 8648, 8647
8596, 8528, 8529, 8649, 8648
8597, 8529, 8530, 8650, 8649
8598, 8530, 8531, 8651, 8650
8599, 8531, 8532, 8652, 8651
8600, 8532, 8533, 8653, 8652
8601, 8533, 8534, 8654, 8653
8602, 8534, 8535, 8655, 8654
8603, 8535, 8536, 8656, 8655
8604, 8536, 8537, 8657, 8656
8605, 8537, 8538, 8658, 8657
8606, 8538, 8539, 8659, 8658
8607, 8539, 8540, 8660, 8659
8608, 8540, 8541, 8661, 8660
8609, 8541, 8542, 8662, 8661
8610, 8542, 8543, 8663, 8662
8611, 8543, 8544, 8664, 8663
8612, 8544, 8545, 8665, 8664
8613, 8545, 8546, 8666, 8665
8614, 8546, 8547, 8667, 8666
8615, 8547, 8548, 8668, 8667
8616, 8548, 8549, 8669, 8668
8617, 8549, 8550, 8670, 8669
8618, 8550, 8551, 8671, 8670
8619, 8551, 8552, 8672, 8671
8620, 8552, 8553, 8673, 8672
8621, 8553, 8554, 8674, 8673
8622, 8554, 8555, 8675, 8674
8623, 8555, 8556, 8676, 8675
8624, 8556, 8557, 8677, 8676
8625, 8557, 8558, 8678, 8677
8626, 8558, 8559, 8679, 8678
8627, 8559, 8560, 8680, 8679
8628, 8560, 8561, 8681, 8680
8629, 8561, 8562, 8682, 8681
8630, 8562, 8563, 8683, 8682
8631, 8563, 8564, 8684, 8683
8632, 8564, 8565, 8685, 8684
8633, 8565, 8566, 8686, 8685
8634, 8566, 8567, 8687, 8686
8635, 8567, 8568, 8688, 8687
8636, 8568, 8569, 8689, 8688
8637, 8569, 8570, 8690, 8689
8638, 8570, 8571, 8691, 8690
8639, 8571, 8572, 8692, 8691
8640, 8572, 8573, 8693, 8692
8641, 8573, 8574, 8694, 8693
8642, 8574, 8575, 8695, 8694
8643, 8575, 8576, 8696, 8695
8644, 8576, 8577, 8697, 8696
8645, 8577, 8578, 8698, 8697
8646, 8578, 8579, 8699, 8698
8647, 8579, 8580, 8700, 8699
8648, 8580, 8581, 8701, 8700
8649, 8581, 8582, 8702, 8701
8650, 8582, 8583, 8703, 8702
8651, 8583, 8584, 8704, 8703
8652, 8584, 8585, 8705, 8704
8653, 8585, 8586, 8706, 8705
8654, 8586, 8587, 8707, 8706
8655, 8587, 8588, 8708, 8707
8656, 8588, 8589, 8709, 8708
8657, 8589, 8590, 8710, 8709
8658, 8590, 8591, 8711, 8710
8659, 8591, 8592, 8712, 8711
8660, 8592, 8593, 8713, 8712
8661, 8593, 8594, 8714, 8713
8662, 8594, 8595, 8715, 8714
8663, 8595, 8596, 8716, 8715
8664, 8596, 8597, 8717, 8716
8665, 8597, 8598, 8718, 8717
8666, 8598, 8599, 8719, 8718
8667, 8599, 8600, 8720, 8719
8668, 8600, 8601, 8721, 8720
8669, 8601, 8602, 8722, 8721
8670, 8602, 8603, 8723, 8722
8671, 8603, 8604, 8724, 8723
8672, 8604, 8605, 8725, 8724
8673, 8605, 8606, 8726, 8725
8674, 8606, 8607, 8727, 8726
8675, 8607, 8608, 8728, 8727
8676, 8608, 8609, 8729, 8728
8677, 8609, 8610, 8730, 8729
8678, 8610, 8611, 8731, 8730
8679, 8611, 8612, 8732, 8731
8680, 8612, 8613, 8733, 8732
8681, 8613, 8614, 8734, 8733
8682, 8614, 8615, 8735, 8734
8683, 8615, 8616, 8736, 8735
8684, 8616, 8617, 8737, 8736
8685, 8617, 8618, 8738, 8737
8686, 8618, 8619, 8739, 8738
8687, 8619, 8620, 8740, 8739
8688, 8620, 8501, 8621, 8740
8689, 8621, 8622, 8742, 8741
8690, 8622, 8623, 8743, 8742
8691, 8623, 8624, 8744, 8743
8692, 8624, 8625, 8745, 8744
8693, 8625, 8626, 8746, 8745
8694, 8626, 8627, 8747, 8746
8695, 8627, 8628, 8748, 8747
8696, 8628, 8629, 8749, 8748
8697, 8629, 8630, 8750, 8749
8698, 8630, 8631, 8751, 8750
8699, 8631, 8632, 8752, 8751
8700, 8632, 8633, 8753, 8752
8701, 8633, 8634, 8754, 8753
8702, 8634, 8635, 8755, 8754
8703, 8635, 8636, 8756, 8755
8704, 8636, 8637, 8757, 8756
8705, 8637, 8638, 8758, 8757
8706, 8638, 8639, 8759, 8758
8707, 8639, 8640, 8760, 8759
8708, 8640, 8641, 8761, 8760
8709, 8641, 8642, 8762, 8761
8710, 8642, 8643, 8763, 8762
8711, 8643, 8644, 8764, 8763
8712, 8644, 8645, 8765, 8764
8713, 8645, 8646, 8766, 8765
8714, 8646, 8647, 8767, 8766
8715, 8647, 8648, 8768, 8767
8716, 8648, 8649, 8769, 8768
8717, 8649, 8650, 8770, 8769
8718, 8650, 8651, 8771, 8770
8719, 8651, 8652, 8772, 8771
8720, 8652, 8653, 8773, 8772
8721, 8653, 8654, 8774, 8773
8722, 8654, 8655, 8775, 8774
8723, 8655, 8656, 8776, 8775
8724, 8656, 8657, 8777, 8776
8725, 8657, 8658, 8778, 8777
8726, 8658, 8659, 8779, 8778
8727, 8659, 8660, 8780, 8779
8728, 8660, 8661, 8781, 8780
8729, 8661, 8662, 8782, 8781
8730, 8662, 8663, 8783, 8782
8731, 8663, 8664, 8784, 8783
8732, 8664, 8665, 8785, 8784
8733, 8665, 8666, 8786, 8785
8734, 8666, 8667, 8787, 8786
8735, 8667, 8668, 8788, 8787
8736, 8668, 8669, 8789, 8788
8737, 8669, 8670, 8790, 8789
8738, 8670, 8671, 8791, 8790
8739, 8671, 8672, 8792, 8791
8740, 8672, 8673, 8793, 8792
8741, 8673, 8674, 8794, 8793
8742, 8674, 8675, 8795, 8794
8743, 8675, 8676, 8796, 8795
8744, 8676, 8677, 8797, 8796
8745, 8677, 8678, 8798, 8797
8746, 8678, 8679, 8799, 8798
8747, 8679, 8680, 8800, 8799
8748, 8680, 8681, 8801, 8800
8749, 8681, 8682, 8802, 8801
8750, 8682, 8683, 8803, 8802
8751, 8683, 8684, 8804, 8803
8752, 8684, 8685, 8805, 8804
8753, 8685, 8686, 8806, 8805
8754, 8686, 8687, 8807, 8806
8755, 8687, 8688, 8808, 8807
8756, 8688, 8689, 8809, 8808
8757, 8689, 8690, 8810, 8809
8758, 8690, 8691, 8811, 8810
8759, 8691, 8692, 8812, 8811
8760, 8692, 8693, 8813, 8812
8761, 8693, 8694, 8814, 8813
8762, 8694, 8695, 8815, 8814
8763, 8695, 8696, 8816, 8815
8764, 8696, 8697, 8817, 8816
8765, 8697, 8698, 8818, 8817
8766, 8698, 8699, 8819, 8818
8767, 8699, 8700, 8820, 8819
8768, 8700, 8701, 8821, 8820
8769, 8701, 8702, 8822, 8821
8770, 8702, 8703, 8823, 8822
8771, 8703, 8704, 8824, 8823
8772, 8704, 8705, 8825, 8824
8773, 8705, 8706, 8826, 8825
8774, 8706, 8707, 8827, 8826
8775, 8707, 8708, 8828, 8827
8776, 8708, 8709, 8829, 8828
8777, 8709, 8710, 8830, 8829
8778, 8710, 8711, 8831, 8830
8779, 8711, 8712, 8832, 8831
8780, 8712, 8713, 8833, 8832
8781, 8713, 8714, 8834, 8833
8782, 8714, 8715, 8835, 8834
8783, 8715, 8716, 8836, 8835
8784, 8716, 8717, 8837, 8836
8785, 8717, 8718, 8838, 8837
8786, 8718, 8719, 8839, 8838
8787, 8719, 8720, 8840, 8839
8788, 8720, 8721, 8841, 8840
8789, 8721, 8722, 8842, 8841
8790, 8722, 8723, 8843, 8842
8791, 8723, 8724, 8844, 8843
8792, 8724, 8725, 8845, 8844
8793, 8725, 8726, 8846, 8845
8794, 8726, 8727, 8847, 8846
8795, 8727, 8728, 8848, 8847
8796, 8728, 8729, 8849, 8848
8797, 8729, 8730, 8850, 8849
8798, 8730, 8731, 8851, 8850
8799, 8731, 8732, 8852, 8851
8800, 8732, 8733, 8853, 8852
8801, 8733, 8734, 8854, 8853
8802, 8734, 8735, 8855, 8854
8803, 8735, 8736, 8856, 8855
8804, 8736, 8737, 8857, 8856
8805, 8737, 8738, 8858, 8857
8806, 8738, 8739, 8859, 8858
8807, 8739, 8740, 8860, 8859
8808, 8740, 8621, 8741, 8860
8809, 8741, 8742, 8862, 8861
8810, 8742, 8743, 8863, 8862
8811, 8743, 8744, 8864, 8863
8812, 8744, 8745, 8865, 8864
8813, 8745, 8746, 8866, 8865
8814, 8746, 8747, 8867, 8866
8815, 8747, 8748, 8868, 8867
8816, 8748, 8749, 8869, 8868
8817, 8749, 8750, 8870, 8869
8818, 8750, 8751, 8871, 8870
8819, 8751, 8752, 8872, 8871
8820, 8752, 8753, 8873, 8872
8821, 8753, 8754, 8874, 8873
8822, 8754, 8755, 8875, 8874
8823, 8755, 8756, 8876, 8875
8824, 8756, 8757, 8877, 8876
8825, 8757, 8758, 8878, 8877
8826, 8758, 8759, 8879, 8878
8827, 8759, 8760, 8880, 8879
8828, 8760, 8761, 8881, 8880
8829, 8761, 8762, 8882, 8881
8830, 8762, 8763, 8883, 8882
8831, 8763, 8764, 8884, 8883
8832, 8764, 8765, 8885, 8884
8833, 8765, 8766, 8886, 8885
8834, 8766, 8767, 8887, 8886
8835, 8767, 8768, 8888, 8887
8836, 8768, 8769, 8889, 8888
8837, 8769, 8770, 8890, 8889
8838, 8770, 8771, 8891, 8890
8839, 8771, 8772, 8892, 8891
8840, 8772, 8773, 8893, 8892
8841, 8773, 8774, 8894, 8893
8842, 8774, 8775, 8895, 8894
8843, 8775, 8776, 8896, 8895
8844, 8776, 8777, 8897, 8896
8845, 8777, 8778, 8898, 8897
8846, 8778, 8779, 8899, 8898
8847, 8779, 8780, 8900, 8899
8848, 8780, 8781, 8901, 8900
8849, 8781, 8782, 8902, 8901
8850, 8782, 8783, 8903, 8902
8851, 8783, 8784, 8904, 8903
8852, 8784, 8785, 8905, 8904
8853, 8785, 8786, 8906, 8905
8854, 8786, 8787, 8907, 8906
8855, 8787, 8788, 8908, 8907
8856, 8788, 8789, 8909, 8908
8857, 8789, 8790, 8910, 8909
8858, 8790, 8791, 8911, 8910
8859, 8791, 8792, 8912, 8911
8860, 8792, 8793, 8913, 8912
8861, 8793, 8794, 8914, 8913
8862, 8794, 8795, 8915, 8914
8863, 8795, 8796, 8916, 8915
8864, 8796, 8797, 8917, 8916
8865, 8797, 8798, 8918, 8917
8866, 8798, 8799, 8919, 8918
8867, 8799, 8800, 8920, 8919
8868, 8800, 8801, 8921, 8920
8869, 8801, 8802, 8922, 8921
8870, 8802, 8803, 8923, 8922
8871, 8803, 8804, 8924, 8923
8872, 8804, 8805, 8925, 8924
8873, 8805, 8806, 8926, 8925
8874, 8806, 8807, 8927, 8926
8875, 8807, 8808, 8928, 8927
8876, 8808, 8809, 8929, 8928
8877, 8809, 8810, 8930, 8929
8878, 8810, 8811, 8931, 8930
8879, 8811, 8812, 8932, 8931
8880, 8812, 8813, 8933, 8932
8881, 8813, 8814, 8934, 8933
8882, 8814, 8815, 8935, 8934
8883, 8815, 8816, 8936, 8935
8884, 8816, 8817, 8937, 8936
8885, 8817, 8818, 8938, 8937
8886, 8818, 8819, 8939, 8938
8887, 8819, 8820, 8940, 8939
8888, 8820, 8821, 8941, 8940
8889, 8821, 8822, 8942, 8941
8890, 8822, 8823, 8943, 8942
8891, 8823, 8824, 8944, 8943
8892, 8824, 8825, 8945, 8944
8893, 8825, 8826, 8946, 8945
8894, 8826, 8827, 8947, 8946
8895, 8827, 8828, 8948, 8947
8896, 8828, 8829, 8949, 8948
8897, 8829, 8830, 8950, 8949
8898, 8830, 8831, 8951, 8950
8899, 8831, 8832, 8952, 8951
8900, 8832, 8833, 8953, 8952
8901, 8833, 8834, 8954, 8953
8902, 8834, 8835, 8955, 8954
8903, 8835, 8836, 8956, 8955
8904, 8836, 8837, 8957, 8956
8905, 8837, 8838, 8958, 8957
8906, 8838, 8839, 8959, 8958
8907, 8839, 8840, 8960, 8959
8908, 8840, 8841, 8961, 8960
8909, 8841, 8842, 8962, 8961
8910, 8842, 8843, 8963, 8962
8911, 8843, 8844, 8964, 8963
8912, 8844, 8845, 8965, 8964
8913, 8845, 8846, 8966, 8965
8914, 8846, 8847, 8967, 8966
8915, 8847, 8848, 8968, 8967
8916, 8848, 8849, 8969, 8968
8917, 8849, 8850, 8970, 8969
8918, 8850, 8851, 8971, 8970
8919, 8851, 8852, 8972, 8971
8920, 8852, 8853, 8973, 8972
8921, 8853, 8854, 8974, 8973
8922, 8854, 8855, 8975, 8974
8923, 8855, 8856, 8976, 8975
8924, 8856, 8857, 8977, 8976
8925, 8857, 8858, 8978, 8977
8926, 8858, 8859, 8979, 8978
8927, 8859, 8860, 8980, 8979
8928, 8860, 8741, 8861, 8980
8929, 8861, 8862, 8982, 8981
8930, 8862, 8863, 8983, 8982
8931, 8863, 8864, 8984, 8983
8932, 8864, 8865, 8985, 8984
8933, 8865, 8866, 8986, 8985
8934, 8866, 8867, 8987, 8986
8935, 8867, 8868, 8988, 8987
8936, 8868, 8869, 8989, 8988
8937, 8869, 8870, 8990, 8989
8938, 8870, 8871, 8991, 8990
8939, 8871, 8872, 8992, 8991
8940, 8872, 8873, 8993, 8992
8941, 8873, 8874, 8994, 8993
8942, 8874, 8875, 8995, 8994
8943, 8875, 8876, 8996, 8995
8944, 8876, 8877, 8997, 8996
8945, 8877, 8878, 8998, 8997
8946, 8878, 8879, 8999, 8998
8947, 8879, 8880, 9000, 8999
8948, 8880, 8881, 9001, 9000
8949, 8881, 8882, 9002, 9001
8950, 8882, 8883, 9003, 9002
8951, 8883, 8884, 9004, 9003
8952, 8884, 8885, 9005, 9004
8953, 8885, 8886, 9006, 9005
8954, 8886, 8887, 9007, 9006
8955, 8887, 8888, 9008, 9007
8956, 8888, 8889, 9009, 9008
8957, 8889, 8890, 9010, 9009
8958, 8890, 8891, 9011, 9010
8959, 8891, 8892, 9012, 9011
8960, 8892, 8893, 9013, 9012
8961, 8893, 8894, 9014, 9013
8962, 8894, 8895, 9015, 9014
8963, 8895, 8896, 9016, 9015
8964, 8896, 8897, 9017, 9016
8965, 8897, 8898, 9018, 9017
8966, 8898, 8899, 9019, 9018
8967, 8899, 8900, 9020, 9019
8968, 8900, 8901, 9021, 9020
8969, 8901, 8902, 9022, 9021
8970, 8902, 8903, 9023, 9022
8971, 8903, 8904, 9024, 9023
8972, 8904, 8905, 9025, 9024
8973, 8905, 8906, 9026, 9025
8974, 8906, 8907, 9027, 9026
8975, 8907, 8908, 9028, 9027
8976, 8908, 8909, 9029, 9028
8977, 8909, 8910, 9030, 9029
8978, 8910, 8911, 9031, 9030
8979, 8911, 8912, 9032, 9031
8980, 8912, 8913, 9033, 9032
8981, 8913, 8914, 9034, 9033
8982, 8914, 8915, 9035, 9034
8983, 8915, 8916, 9036, 9035
8984, 8916, 8917, 9037, 9036
8985, 8917, 8918, 9038, 9037
8986, 8918, 8919, 9039, 9038
8987, 8919, 8920, 9040, 9039
8988, 8920, 8921, 9041, 9040
8989, 8921, 8922, 9042, 9041
8990, 8922, 8923, 9043, 9042
8991, 8923, 8924, 9044, 9043
8992, 8924, 8925, 9045, 9044
8993, 8925, 8926, 9046, 9045
8994, 8926, 8927, 9047, 9046
8995, 8927, 8928, 9048, 9047
8996, 8928, 8929, 9049, 9048
8997, 8929, 8930, 9050, 9049
8998, 8930, 8931, 9051, 9050
8999, 8931, 8932, 9052, 9051
9000, 8932, 8933, 9053, 9052
9001, 8933, 8934, 9054, 9053
9002, 8934, 8935, 9055, 9054
9003, 8935, 8936, 9056, 9055
9004, 8936, 8937, 9057, 9056
9005, 8937, 8938, 9058, 9057
9006, 8938, 8939, 9059, 9058
9007, 8939, 8940, 9060, 9059
9008, 8940, 8941, 9061, 9060
9009, 8941, 8942, 9062, 9061
9010, 8942, 8943, 9063, 9062
9011, 8943, 8944, 9064, 9063
9012, 8944, 8945, 9065, 9064
9013, 8945, 8946, 9066, 9065
9014, 8946, 8947, 9067, 9066
9015, 8947, 8948, 9068, 9067
9016, 8948, 8949, 9069, 9068
9017, 8949, 8950, 9070, 9069
9018, 8950, 8951, 9071, 9070
9019, 8951, 8952, 9072, 9071
9020, 8952, 8953, 9073, 9072
9021, 8953, 8954, 9074, 9073
9022, 8954, 8955, 9075, 9074
9023, 8955, 8956, 9076, 9075
9024, 8956, 8957, 9077, 9076
9025, 8957, 8958, 9078, 9077
9026, 8958, 8959, 9079, 9078
9027, 8959, 8960, 9080, 9079
9028, 8960, 8961, 9081, 9080
9029, 8961, 8962, 9082, 9081
9030, 8962, 8963, 9083, 9082
9031, 8963, 8964, 9084, 9083
9032, 8964, 8965, 9085, 9084
9033, 8965, 8966, 9086, 9085
9034, 8966, 8967, 9087, 9086
9035, 8967, 8968, 9088, 9087
9036, 8968, 8969, 9089, 9088
9037, 8969, 8970, 9090, 9089
9038, 8970, 8971, 9091, 9090
9039, 8971, 8972, 9092, 9091
9040, 8972, 8973, 9093, 9092
9041, 8973, 8974, 9094, 9093
9042, 8974, 8975, 9095, 9094
9043, 8975, 8976, 9096, 9095
9044, 8976, 8977, 9097, 9096
9045, 8977, 8978, 9098, 9097
9046, 8978, 8979, 9099, 9098
9047, 8979, 8980, 9100, 9099
9048, 8980, 8861, 8981, 9100
9049, 8981, 8982, 9102, 9101
9050, 8982, 8983, 9103, 9102
9051, 8983, 8984, 9104, 9103
9052, 8984, 8985, 9105, 9104
9053, 8985, 8986, 9106, 9105
9054, 8986, 8987, 9107, 9106
9055, 8987, 8988, 9108, 9107
9056, 8988, 8989, 9109, 9108
9057, 8989, 8990, 9110, 9109
9058, 8990, 8991, 9111, 9110
9059, 8991, 8992, 9112, 9111
9060, 8992, 8993, 9113, 9112
9061, 8993, 8994, 9114, 9113
9062, 8994, 8995, 9115, 9114
9063, 8995, 8996, 9116, 9115
9064, 8996, 8997, 9117, 9116
9065, 8997, 8998, 9118, 9117
9066, 8998, 8999, 9119, 9118
9067, 8999, 9000, 9120, 9119
9068, 9000, 9001, 9121, 9120
9069, 9001, 9002, 9122, 9121
9070, 9002, 9003, 9123, 9122
9071, 9003, 9004, 9124, 9123
9072, 9004, 9005, 9125, 9124
9073, 9005, 9006, 9126, 9125
9074, 9006, 9007, 9127, 9126
9075, 9007, 9008, 9128, 9127
9076, 9008, 9009, 9129, 9128
9077, 9009, 9010, 9130, 9129
9078, 9010, 9011, 9131, 9130
9079, 9011, 9012, 9132, 9131
9080, 9012, 9013, 9133, 9132
9081, 9013, 9014, 9134, 9133
9082, 9014, 9015, 9135, 9134
9083, 9015, 9016, 9136, 9135
9084, 9016, 9017, 9137, 9136
9085, 9017, 9018, 9138, 9137
9086, 9018, 9019, 9139, 9138
9087, 9019, 9020, 9140, 9139
9088, 9020, 9021, 9141, 9140
9089, 9021, 9022, 9142, 9141
9090, 9022, 9023, 9143, 9142
9091, 9023, 9024, 9144, 9143
9092, 9024, 9025, 9145, 9144
9093, 9025, 9026, 9146, 9145
9094, 9026, 9027, 9147, 9146
9095, 9027, 9028, 9148, 9147
9096, 9028, 9029, 9149, 9148
9097, 9029, 9030, 9150, 9149
9098, 9030, 9031, 9151, 9150
9099, 9031, 9032, 9152, 9151
9100, 9032, 9033, 9153, 9152
9101, 9033, 9034, 9154, 9153
9102, 9034, 9035, 9155, 9154
9103, 9035, 9036, 9156, 9155
9104, 9036, 9037, 9157, 9156
9105, 9037, 9038, 9158, 9157
9106, 9038, 9039, 9159, 9158
9107, 9039, 9040, 9160, 9159
9108, 9040, 9041, 9161, 9160
9109, 9041, 9042, 9162, 9161
9110, 9042, 9043, 9163, 9162
9111, 9043, 9044, 9164, 9163
9112, 9044, 9045, 9165, 9164
9113, 9045, 9046, 9166, 9165
9114, 9046, 9047, 9167, 9166
9115, 9047, 9048, 9168, 9167
9116, 9048, 9049, 9169, 9168
9117, 9049, 9050, 9170, 9169
9118, 9050, 9051, 9171, 9170
9119, 9051, 9052, 9172, 9171
9120, 9052, 9053, 9173, 9172
9121, 9053, 9054, 9174, 9173
9122, 9054, 9055, 9175, 9174
9123, 9055, 9056, 9176, 9175
9124, 9056, 9057, 9177, 9176
9125, 9057, 9058, 9178, 9177
9126, 9058, 9059, 9179, 9178
9127, 9059, 9060, 9180, 9179
9128, 9060, 9061, 9181, 9180
9129, 9061, 9062, 9182, 9181
9130, 9062, 9063, 9183, 9182
9131, 9063, 9064, 9184, 9183
9132, 9064, 9065, 9185, 9184
9133, 9065, 9066, 9186, 9185
9134, 9066, 9067, 9187, 9186
9135, 9067, 9068, 9188, 9187
9136, 9068, 9069, 9189, 9188
9137, 9069, 9070, 9190, 9189
9138, 9070, 9071, 9191, 9190
9139, 9071, 9072, 9192, 9191
9140, 9072, 9073, 9193, 9192
9141, 9073, 9074, 9194, 9193
9142, 9074, 9075, 9195, 9194
9143, 9075, 9076, 9196, 9195
9144, 9076, 9077, 9197, 9196
9145, 9077, 9078, 9198, 9197
9146, 9078, 9079, 9199, 9198
9147, 9079, 9080, 9200, 9199
9148, 9080, 9081, 9201, 9200
9149, 9081, 9082, 9202, 9201
9150, 9082, 9083, 9203, 9202
9151, 9083, 9084, 9204, 9203
9152, 9084, 9085, 9205, 9204
9153, 9085, 9086, 9206, 9205
9154, 9086, 9087, 9207, 9206
9155, 9087, 9088, 9208, 9207
9156, 9088, 9089, 9209, 9208
9157, 9089, 9090, 9210, 9209
9158, 9090, 9091, 9211, 9210
9159, 9091, 9092, 9212, 9211
9160, 9092, 9093, 9213, 9212
9161, 9093, 9094, 9214, 9213
9162, 9094, 9095, 9215, 9214
9163, 9095, 9096, 9216, 9215
9164, 9096, 9097, 9217, 9216
9165, 9097, 9098, 9218, 9217
9166, 9098, 9099, 9219, 9218
9167, 9099, 9100, 9220, 9219
9168, 9100, 8981, 9101, 9220
9169, 9101, 9102, 9222, 9221
9170, 9102, 9103, 9223, 9222
9171, 9103, 9104, 9224, 9223
9172, 9104, 9105, 9225, 9224
9173, 9105, 9106, 9226, 9225
9174, 9106, 9107, 9227, 9226
9175, 9107, 9108, 9228, 9227
9176, 9108, 9109, 9229, 9228
9177, 9109, 9110, 9230, 9229
9178, 9110, 9111, 9231, 9230
9179, 9111, 9112, 9232, 9231
9180, 9112, 9113, 9233, 9232
9181, 9113, 9114, 9234, 9233
9182, 9114, 9115, 9235, 9234
9183, 9115, 9116, 9236, 9235
9184, 9116, 9117, 9237, 9236
9185, 9117, 9118, 9238, 9237
9186, 9118, 9119, 9239, 9238
9187, 9119, 9120, 9240, 9239
9188, 9120, 9121, 9241, 9240
9189, 9121, 9122, 9242, 9241
9190, 9122, 9123, 9243, 9242
9191, 9123, 9124, 9244, 9243
9192, 9124, 9125, 9245, 9244
9193, 9125, 9126, 9246, 9245
9194, 9126, 9127, 9247, 9246
9195, 9127, 9128, 9248, 9247
9196, 9128, 9129, 9249, 9248
9197, 9129, 9130, 9250, 9249
9198, 9130, 9131, 9251, 9250
9199, 9131, 9132, 9252, 9251
9200, 9132, 9133, 9253, 9252
9201, 9133, 9134, 9254, 9253
9202, 9134, 9135, 9255, 9254
9203, 9135, 9136, 9256, 9255
9204, 9136, 9137, 9257, 9256
9205, 9137, 9138, 9258, 9257
9206, 9138, 9139, 9259, 9258
9207, 9139, 9140, 9260, 9259
9208, 9140, 9141, 9261, 9260
9209, 9141, 9142, 9262, 9261
9210, 9142, 9143, 9263, 9262
9211, 9143, 9144, 9264, 9263
9212, 9144, 9145, 9265, 9264
9213, 9145, 9146, 9266, 9265
9214, 9146, 9147, 9267, 9266
9215, 9147, 9148, 9268, 9267
9216, 9148, 9149, 9269, 9268
9217, 9149, 9150, 9270, 9269
9218, 9150, 9151, 9271, 9270
9219, 9151, 9152, 9272, 9271
9220, 9152, 9153, 9273, 9272
9221, 9153, 9154, 9274, 9273
9222, 9154, 9155, 9275, 9274
9223, 9155, 9156, 9276, 9275
9224, 9156, 9157, 9277, 9276
9225, 9157, 9158, 9278, 9277
9226, 9158, 9159, 9279, 9278
9227, 9159, 9160, 9280, 9279
9228, 9160, 9161, 9281, 9280
9229, 9161, 9162, 9282, 9281
9230, 9162, 9163, 9283, 9282
9231, 9163, 9164, 9284, 9283
9232, 9164, 9165, 9285, 9284
9233, 9165, 9166, 9286, 9285
9234, 9166, 9167, 9287, 9286
9235, 9167, 9168, 9288, 9287
9236, 9168, 9169, 9289, 9288
9237, 9169, 9170, 9290, 9289
9238, 9170, 9171, 9291, 9290
9239, 9171, 9172, 9292, 9291
9240, 9172, 9173, 9293, 9292
9241, 9173, 9174, 9294, 9293
9242, 9174, 9175, 9295, 9294
9243, 9175, 9176, 9296, 9295
9244, 9176, 9177, 9297, 9296
9245, 9177, 9178, 9298, 9297
9246, 9178, 9179, 9299, 9298
9247, 9179, 9180, 9300, 9299
9248, 9180, 9181, 9301, 9300
9249, 9181, 9182, 9302, 9301
9250, 9182, 9183, 9303, 9302
9251, 9183, 9184, 9304, 9303
9252, 9184, 9185, 9305, 9304
9253, 9185, 9186, 9306, 9305
9254, 9186, 9187, 9307, 9306
9255, 9187, 9188, 9308, 9307
9256, 9188, 9189, 9309, 9308
9257, 9189, 9190, 9310, 9309
9258, 9190, 9191, 9311, 9310
9259, 9191, 9192, 9312, 9311
9260, 9192, 9193, 9313, 9312
9261, 9193, 9194, 9314, 9313
9262, 9194, 9195, 9315, 9314
9263, 9195, 9196, 9316, 9315
9264, 9196, 9197, 9317, 9316
9265, 9197, 9198, 9318, 9317
9266, 9198, 9199, 9319, 9318
9267, 9199, 9200, 9320, 9319
9268, 9200, 9201, 9321, 9320
9269, 9201, 9202, 9322, 9321
9270, 9202, 9203, 9323, 9322
9271, 9203, 9204, 9324, 9323
9272, 9204, 9205, 9325, 9324
9273, 9205, 9206, 9326, 9325
9274, 9206, 9207, 9327, 9326
9275, 9207, 9208, 9328, 9327
9276, 9208, 9209, 9329, 9328
9277, 9209, 9210, 9330, 9329
9278, 9210, 9211, 9331, 9330
9279, 9211, 9212, 9332, 9331
9280, 9212, 9213, 9333, 9332
9281, 9213, 9214, 9334, 9333
9282, 9214, 9215, 9335, 9334
9283, 9215, 9216, 9336, 9335
9284, 9216, 9217, 9337, 9336
9285, 9217, 9218, 9338, 9337
9286, 9218, 9219, 9339, 9338
9287, 9219, 9220, 9340, 9339
9288, 9220, 9101, 9221, 9340
9289, 9221, 9222, 9342, 9341
9290, 9222, 9223, 9343, 9342
9291, 9223, 9224, 9344, 9343
9292, 9224, 9225, 9345, 9344
9293, 9225, 9226, 9346, 9345
9294, 9226, 9227, 9347, 9346
9295, 9227, 9228, 9348, 9347
9296, 9228, 9229, 9349, 9348
9297, 9229, 9230, 9350, 9349
9298, 9230, 9231, 9351, 9350
9299, 9231, 9232, 9352, 9351
9300, 9232, 9233, 9353, 9352
9301, 9233, 9234, 9354, 9353
9302, 9234, 9235, 9355, 9354
9303, 9235, 9236, 9356, 9355
9304, 9236, 9237, 9357, 9356
9305, 9237, 9238, 9358, 9357
9306, 9238, 9239, 9359, 9358
9307, 9239, 9240, 9360, 9359
9308, 9240, 9241, 9361, 9360
9309, 9241, 9242, 9362, 9361
9310, 9242, 9243, 9363, 9362
9311, 9243, 9244, 9364, 9363
9312, 9244, 9245, 9365, 9364
9313, 9245, 9246, 9366, 9365
9314, 9246, 9247, 9367, 9366
9315, 9247, 9248, 9368, 9367
9316, 9248, 9249, 9369, 9368
9317, 9249, 9250, 9370, 9369
9318, 9250, 9251, 9371, 9370
9319, 9251, 9252, 9372, 9371
9320, 9252, 9253, 9373, 9372
9321, 9253, 9254, 9374, 9373
9322, 9254, 9255, 9375, 9374
9323, 9255, 9256, 9376, 9375
9324, 9256, 9257, 9377, 9376
9325, 9257, 9258, 9378, 9377
9326, 9258, 9259, 9379, 9378
9327, 9259, 9260, 9380, 9379
9328, 9260, 9261, 9381, 9380
9329, 9261, 9262, 9382, 9381
9330, 9262, 9263, 9383, 9382
9331, 9263, 9264, 9384, 9383
9332, 9264, 9265, 9385, 9384
9333, 9265, 9266, 9386, 9385
9334, 9266, 9267, 9387, 9386
9335, 9267, 9268, 9388, 9387
9336, 9268, 9269, 9389, 9388
9337, 9269, 9270, 9390, 9389
9338, 9270, 9271, 9391, 9390
9339, 9271, 9272, 9392, 9391
9340, 9272, 9273, 9393, 9392
9341, 9273, 9274, 9394, 9393
9342, 9274, 9275, 9395, 9394
9343, 9275, 9276, 9396, 9395
9344, 9276, 9277, 9397, 9396
9345, 9277, 9278, 9398, 9397
9346, 9278, 9279, 9399, 9398
9347, 9279, 9280, 9400, 9399
9348, 9280, 9281, 9401, 9400
9349, 9281, 9282, 9402, 9401
9350, 9282, 9283, 9403, 9402
9351, 9283, 9284, 9404, 9403
9352, 9284, 9285, 9405, 9404
9353, 9285, 9286, 9406, 9405
9354, 9286, 9287, 9407, 9406
9355, 9287, 9288, 9408, 9407
9356, 9288, 9289, 9409, 9408
9357, 9289, 9290, 9410, 9409
9358, 9290, 9291, 9411, 9410
9359, 9291, 9292, 9412, 9411
9360, 9292, 9293, 9413, 9412
9361, 9293, 9294, 9414, 9413
9362, 9294, 9295, 9415, 9414
9363, 9295, 9296, 9416, 9415
9364, 9296, 9297, 9417, 9416
9365, 9297, 9298, 9418, 9417
9366, 9298, 9299, 9419, 9418
9367, 9299, 9300, 9420, 9419
9368, 9300, 9301, 9421, 9420
9369, 9301, 9302, 9422, 9421
9370, 9302, 9303, 9423, 9422
9371, 9303, 9304, 9424, 9423
9372, 9304, 9305, 9425, 9424
9373, 9305, 9306, 9426, 9425
9374, 9306, 9307, 9427, 9426
9375, 9307, 9308, 9428, 9427
9376, 9308, 9309, 9429, 9428
9377, 9309, 9310, 9430, 9429
9378, 9310, 9311, 9431, 9430
9379, 9311, 9312, 9432, 9431
9380, 9312, 9313, 9433, 9432
9381, 9313, 9314, 9434, 9433
9382, 9314, 9315, 9435, 9434
9383, 9315, 9316, 9436, 9435
9384, 9316, 9317, 9437, 9436
9385, 9317, 9318, 9438, 9437
9386, 9318, 9319, 9439, 9438
9387, 9319, 9320, 9440, 9439
9388, 9320, 9321, 9441, 9440
9389, 9321, 9322, 9442, 9441
9390, 9322, 9323, 9443, 9442
9391, 9323, 9324, 9444, 9443
9392, 9324, 9325, 9445, 9444
9393, 9325, 9326, 9446, 9445
9394, 9326, 9327, 9447, 9446
9395, 9327, 9328, 9448, 9447
9396, 9328, 9329, 9449, 9448
9397, 9329, 9330, 9450, 9449
9398, 9330, 9331, 9451, 9450
9399, 9331, 9332, 9452, 9451
9400, 9332, 9333, 9453, 9452
9401, 9333, 9334, 9454, 9453
9402, 9334, 9335, 9455, 9454
9403, 9335, 9336, 9456, 9455
9404, 9336, 9337, 9457, 9456
9405, 9337, 9338, 9458, 9457
9406, 9338, 9339, 9459, 9458
9407, 9339, 9340, 9460, 9459
9408, 9340, 9221, 9341, 9460
9409, 9341, 9342, 9462, 9461
9410, 9342, 9343, 9463, 9462
9411, 9343, 9344, 9464, 9463
9412, 9344, 9345, 9465, 9464
9413, 9345, 9346, 9466, 9465
9414, 9346, 9347, 9467, 9466
9415, 9347, 9348, 9468, 9467
9416, 9348, 9349, 9469, 9468
9417, 9349, 9350, 9470, 9469
9418, 9350, 9351, 9471, 9470
9419, 9351, 9352, 9472, 9471
9420, 9352, 9353, 9473, 9472
9421, 9353, 9354, 9474, 9473
9422, 9354, 9355, 9475, 9474
9423, 9355, 9356, 9476, 9475
9424, 9356, 9357, 9477, 9476
9425, 9357, 9358, 9478, 9477
9426, 9358, 9359, 9479, 9478
9427, 9359, 9360, 9480, 9479
9428, 9360, 9361, 9481, 9480
9429, 9361, 9362, 9482, 9481
9430, 9362, 9363, 9483, 9482
9431, 9363, 9364, 9484, 9483
9432, 9364, 9365, 9485, 9484
9433, 9365, 9366, 9486, 9485
9434, 9366, 9367, 9487, 9486
9435, 9367, 9368, 9488, 9487
9436, 9368, 9369, 9489, 9488
9437, 9369, 9370, 9490, 9489
9438, 9370, 9371, 9491, 9490
9439, 9371, 9372, 9492, 9491
9440, 9372, 9373, 9493, 9492
9441, 9373, 9374, 9494, 9493
9442, 9374, 9375, 9495, 9494
9443, 9375, 9376, 9496, 9495
9444, 9376, 9377, 9497, 9496
9445, 9377, 9378, 9498, 9497
9446, 9378, 9379, 9499, 9498
9447, 9379, 9380, 9500, 9499
9448, 9380, 9381, 9501, 9500
9449, 9381, 9382, 9502, 9501
9450, 9382, 9383, 9503, 9502
9451, 9383, 9384, 9504, 9503
9452, 9384, 9385, 9505, 9504
9453, 9385, 9386, 9506, 9505
9454, 9386, 9387, 9507, 9506
9455, 9387, 9388, 9508, 9507
9456, 9388, 9389, 9509, 9508
9457, 9389, 9390, 9510, 9509
9458, 9390, 9391, 9511, 9510
9459, 9391, 9392, 9512, 9511
9460, 9392, 9393, 9513, 9512
9461, 9393, 9394, 9514, 9513
9462, 9394, 9395, 9515, 9514
9463, 9395, 9396, 9516, 9515
9464, 9396, 9397, 9517, 9516
9465, 9397, 9398, 9518, 9517
9466, 9398, 9399, 9519, 9518
9467, 9399, 9400, 9520, 9519
9468, 9400, 9401, 9521, 9520
9469, 9401, 9402, 9522, 9521
9470, 9402, 9403, 9523, 9522
9471, 9403, 9404, 9524, 9523
9472, 9404, 9405, 9525, 9524
9473, 9405, 9406, 9526, 9525
9474, 9406, 9407, 9527, 9526
9475, 9407, 9408, 9528, 9527
9476, 9408, 9409, 9529, 9528
9477, 9409, 9410, 9530, 9529
9478, 9410, 9411, 9531, 9530
9479, 9411, 9412, 9532, 9531
9480, 9412, 9413, 9533, 9532
9481, 9413, 9414, 9534, 9533
9482, 9414, 9415, 9535, 9534
9483, 9415, 9416, 9536, 9535
9484, 9416, 9417, 9537, 9536
9485, 9417, 9418, 9538, 9537
9486, 9418, 9419, 9539, 9538
9487, 9419, 9420, 9540, 9539
9488, 9420, 9421, 9541, 9540
9489, 9421, 9422, 9542, 9541
9490, 9422, 9423, 9543, 9542
9491, 9423, 9424, 9544, 9543
9492, 9424, 9425, 9545, 9544
9493, 9425, 9426, 9546, 9545
9494, 9426, 9427, 9547, 9546
9495, 9427, 9428, 9548, 9547
9496, 9428, 9429, 9549, 9548
9497, 9429, 9430, 9550, 9549
9498, 9430, 9431, 9551, 9550
9499, 9431, 9432, 9552, 9551
9500, 9432, 9433, 9553, 9552
9501, 9433, 9434, 9554, 9553
9502, 9434, 9435, 9555, 9554
9503, 9435, 9436, 9556, 9555
9504, 9436, 9437, 9557, 9556
9505, 9437, 9438, 9558, 9557
9506, 9438, 9439, 9559, 9558
9507, 9439, 9440, 9560, 9559
9508, 9440, 9441, 9561, 9560
9509, 9441, 9442, 9562, 9561
9510, 9442, 9443, 9563, 9562
9511, 9443, 9444, 9564, 9563
9512, 9444, 9445, 9565, 9564
9513, 9445, 9446, 9566, 9565
9514, 9446, 9447, 9567, 9566
9515, 9447, 9448, 9568, 9567
9516, 9448, 9449, 9569, 9568
9517, 9449, 9450, 9570, 9569
9518, 9450, 9451, 9571, 9570
9519, 9451, 9452, 9572, 9571
9520, 9452, 9453, 9573, 9572
9521, 9453, 9454, 9574, 9573
9522, 9454, 9455, 9575, 9574
9523, 9455, 9456, 9576, 9575
9524, 9456, 9457, 9577, 9576
9525, 9457, 9458, 9578, 9577
9526, 9458, 9459, 9579, 9578
9527, 9459, 9460, 9580, 9579
9528, 9460, 9341, 9461, 9580
9529, 9461, 9462, 9582, 9581
9530, 9462, 9463, 9583, 9582
9531, 9463, 9464, 9584, 9583
9532, 9464, 9465, 9585, 9584
9533, 9465, 9466, 9586, 9585
9534, 9466, 9467, 9587, 9586
9535, 9467, 9468, 9588, 9587
9536, 9468, 9469, 9589, 9588
9537, 9469, 9470, 9590, 9589
9538, 9470, 9471, 9591, 9590
9539, 9471, 9472, 9592, 9591
9540, 9472, 9473, 9593, 9592
9541, 9473, 9474, 9594, 9593
9542, 9474, 9475, 9595, 9594
9543, 9475, 9476, 9596, 9595
9544, 9476, 9477, 9597, 9596
9545, 9477, 9478, 9598, 9597
9546, 9478, 9479, 9599, 9598
9547, 9479, 9480, 9600, 9599
9548, 9480, 9481, 9601, 9600
9549, 9481, 9482, 9602, 9601
9550, 9482, 9483, 9603, 9602
9551, 9483, 9484, 9604, 9603
9552, 9484, 9485, 9605, 9604
9553, 9485, 9486, 9606, 9605
9554, 9486, 9487, 9607, 9606
9555, 9487, 9488, 9608, 9607
9556, 9488, 9489, 9609, 9608
9557, 9489, 9490, 9610, 9609
9558, 9490, 9491, 9611, 9610
9559, 9491, 9492, 9612, 9611
9560, 9492, 9493, 9613, 9612
9561, 9493, 9494, 9614, 9613
9562, 9494, 9495, 9615, 9614
9563, 9495, 9496, 9616, 9615
9564, 9496, 9497, 9617, 9616
9565, 9497, 9498, 9618, 9617
9566, 9498, 9499, 9619, 9618
9567, 9499, 9500, 9620, 9619
9568, 9500, 9501, 9621, 9620
9569, 9501, 9502, 9622, 9621
9570, 9502, 9503, 9623, 9622
9571, 9503, 9504, 9624, 9623
9572, 9504, 9505, 9625, 9624
9573, 9505, 9506, 9626, 9625
9574, 9506, 9507, 9627, 9626
9575, 9507, 9508, 9628, 9627
9576, 9508, 9509, 9629, 9628
9577, 9509, 9510, 9630, 9629
9578, 9510, 9511, 9631, 9630
9579, 9511, 9512, 9632, 9631
9580, 9512, 9513, 9633, 9632
9581, 9513, 9514, 9634, 9633
9582, 9514, 9515, 9635, 9634
9583, 9515, 9516, 9636, 9635
9584, 9516, 9517, 9637, 9636
9585, 9517, 9518, 9638, 9637
9586, 9518, 9519, 9639, 9638
9587, 9519, 9520, 9640, 9639
9588, 9520, 9521, 9641, 9640
9589, 9521, 9522, 9642, 9641
9590, 9522, 9523, 9643, 9642
9591, 9523, 9524, 9644, 9643
9592, 9524, 9525, 9645, 9644
9593, 9525, 9526, 9646, 9645
9594, 9526, 9527, 9647, 9646
9595, 9527, 9528, 9648, 9647
9596, 9528, 9529, 9649, 9648
9597, 9529, 9530, 9650, 9649
9598, 9530, 9531, 9651, 9650
9599, 9531, 9532, 9652, 9651
9600, 9532, 9533, 9653, 9652
9601, 9533, 9534, 9654, 9653
9602, 9534, 9535, 9655, 9654
9603, 9535, 9536, 9656, 9655
9604, 9536, 9537, 9657, 9656
9605, 9537, 9538, 9658, 9657
9606, 9538, 9539, 9659, 9658
9607, 9539, 9540, 9660, 9659
9608, 9540, 9541, 9661, 9660
9609, 9541, 9542, 9662, 9661
9610, 9542, 9543, 9663, 9662
9611, 9543, 9544, 9664, 9663
9612, 9544, 9545, 9665, 9664
9613, 9545, 9546, 9666, 9665
9614, 9546, 9547, 9667, 9666
9615, 9547, 9548, 9668, 9667
9616, 9548, 9549, 9669, 9668
9617, 9549, 9550, 9670, 9669
9618, 9550, 9551, 9671, 9670
9619, 9551, 9552, 9672, 9671
9620, 9552, 9553, 9673, 9672
9621, 9553, 9554, 9674, 9673
9622, 9554, 9555, 9675, 9674
9623, 9555, 9556, 9676, 9675
9624, 9556, 9557, 9677, 9676
9625, 9557, 9558, 9678, 9677
9626, 9558, 9559, 9679, 9678
9627, 9559, 9560, 9680, 9679
9628, 9560, 9561, 9681, 9680
9629, 9561, 9562, 9682, 9681
9630, 9562, 9563, 9683, 9682
9631, 9563, 9564, 9684, 9683
9632, 9564, 9565, 9685, 9684
9633, 9565, 9566, 9686, 9685
9634, 9566, 9567, 9687, 9686
9635, 9567, 9568, 9688, 9687
9636, 9568, 9569, 9689, 9688
9637, 9569, 9570, 9690, 9689
9638, 9570, 9571, 9691, 9690
9639, 9571, 9572, 9692, 9691
9640, 9572, 9573, 9693, 9692
9641, 9573, 9574, 9694, 9693
9642, 9574, 9575, 9695, 9694
9643, 9575, 9576, 9696, 9695
9644, 9576, 9577, 9697, 9696
9645, 9577, 9578, 9698, 9697
9646, 9578, 9579, 9699, 9698
9647, 9579, 9580, 9700, 9699
9648, 9580, 9461, 9581, 9700
9649, 9581, 9582, 9702, 9701
9650, 9582, 9583, 9703, 9702
9651, 9583, 9584, 9704, 9703
9652, 9584, 9585, 9705, 9704
9653, 9585, 9586, 9706, 9705
9654, 9586, 9587, 9707, 9706
9655, 9587, 9588, 9708, 9707
9656, 9588, 9589, 9709, 9708
9657, 9589, 9590, 9710, 9709
9658, 9590, 9591, 9711, 9710
9659, 9591, 9592, 9712, 9711
9660, 9592, 9593, 9713, 9712
9661, 9593, 9594, 9714, 9713
9662, 9594, 9595, 9715, 9714
9663, 9595, 9596, 9716, 9715
9664, 9596, 9597, 9717, 9716
9665, 9597, 9598, 9718, 9717
9666, 9598, 9599, 9719, 9718
9667, 9599, 9600, 9720, 9719
9668, 9600, 9601, 9721, 9720
9669, 9601, 9602, 9722, 9721
9670, 9602, 9603, 9723, 9722
9671, 9603, 9604, 9724, 9723
9672, 9604, 9605, 9725, 9724
9673, 9605, 9606, 9726, 9725
9674, 9606, 9607, 9727, 9726
9675, 9607, 9608, 9728, 9727
9676, 9608, 9609, 9729, 9728
9677, 9609, 9610, 9730, 9729
9678, 9610, 9611, 9731, 9730
9679, 9611, 9612, 9732, 9731
9680, 9612, 9613, 9733, 9732
9681, 9613, 9614, 9734, 9733
9682, 9614, 9615, 9735, 9734
9683, 9615, 9616, 9736, 9735
9684, 9616, 9617, 9737, 9736
9685, 9617, 9618, 9738, 9737
9686, 9618, 9619, 9739, 9738
9687, 9619, 9620, 9740, 9739
9688, 9620, 9621, 9741, 9740
9689, 9621, 9622, 9742, 9741
9690, 9622, 9623, 9743, 9742
9691, 9623, 9624, 9744, 9743
9692, 9624, 9625, 9745, 9744
9693, 9625, 9626, 9746, 9745
9694, 9626, 9627, 9747, 9746
9695, 9627, 9628, 9748, 9747
9696, 9628, 9629, 9749, 9748
9697, 9629, 9630, 9750, 9749
9698, 9630, 9631, 9751, 9750
9699, 9631, 9632, 9752, 9751
9700, 9632, 9633, 9753, 9752
9701, 9633, 9634, 9754, 9753
9702, 9634, 9635, 9755, 9754
9703, 9635, 9636, 9756, 9755
9704, 9636, 9637, 9757, 9756
9705, 9637, 9638, 9758, 9757
9706, 9638, 9639, 9759, 9758
9707, 9639, 9640, 9760, 9759
9708, 9640, 9641, 9761, 9760
9709, 9641, 9642, 9762, 9761
9710, 9642, 9643, 9763, 9762
9711, 9643, 9644, 9764, 9763
9712, 9644, 9645, 9765, 9764
9713, 9645, 9646, 9766, 9765
9714, 9646, 9647, 9767, 9766
9715, 9647, 9648, 9768, 9767
9716, 9648, 9649, 9769, 9768
9717, 9649, 9650, 9770, 9769
9718, 9650, 9651, 9771, 9770
9719, 9651, 9652, 9772, 9771
9720, 9652, 9653, 9773, 9772
9721, 9653, 9654, 9774, 9773
9722, 9654, 9655, 9775, 9774
9723, 9655, 9656, 9776, 9775
9724, 9656, 9657, 9777, 9776
9725, 9657, 9658, 9778, 9777
9726, 9658, 9659, 9779, 9778
9727, 9659, 9660, 9780, 9779
9728, 9660, 9661, 9781, 9780
9729, 9661, 9662, 9782, 9781
9730, 9662, 9663, 9783, 9782
9731, 9663, 9664, 9784, 9783
9732, 9664, 9665, 9785, 9784
9733, 9665, 9666, 9786, 9785
9734, 9666, 9667, 9787, 9786
9735, 9667, 9668, 9788, 9787
9736, 9668, 9669, 9789, 9788
9737, 9669, 9670, 9790, 9789
9738, 9670, 9671, 9791, 9790
9739, 9671, 9672, 9792, 9791
9740, 9672, 9673, 9793, 9792
9741, 9673, 9674, 9794, 9793
9742, 9674, 9675, 9795, 9794
9743, 9675, 9676, 9796, 9795
9744, 9676, 9677, 9797, 9796
9745, 9677, 9678, 9798, 9797
9746, 9678, 9679, 9799, 9798
9747, 9679, 9680, 9800, 9799
9748, 9680, 9681, 9801, 9800
9749, 9681, 9682, 9802, 9801
9750, 9682, 9683, 9803, 9802
9751, 9683, 9684, 9804, 9803
9752, 9684, 9685, 9805, 9804
9753, 9685, 9686, 9806, 9805
9754, 9686, 9687, 9807, 9806
9755, 9687, 9688, 9808, 9807
9756, 9688, 9689, 9809, 9808
9757, 9689, 9690, 9810, 9809
9758, 9690, 9691, 9811, 9810
9759, 9691, 9692, 9812, 9811
9760, 9692, 9693, 9813, 9812
9761, 9693, 9694, 9814, 9813
9762, 9694, 9695, 9815, 9814
9763, 9695, 9696, 9816, 9815
9764, 9696, 9697, 9817, 9816
9765, 9697, 9698, 9818, 9817
9766, 9698, 9699, 9819, 9818
9767, 9699, 9700, 9820, 9819
9768, 9700, 9581, 9701, 9820
9769, 9701, 9702, 9822, 9821
9770, 9702, 9703, 9823, 9822
9771, 9703, 9704, 9824, 9823
9772, 9704, 9705, 9825, 9824
9773, 9705, 9706, 9826, 9825
9774, 9706, 9707, 9827, 9826
9775, 9707, 9708, 9828, 9827
9776, 9708, 9709, 9829, 9828
9777, 9709, 9710, 9830, 9829
9778, 9710, 9711, 9831, 9830
9779, 9711, 9712, 9832, 9831
9780, 9712, 9713, 9833, 9832
9781, 9713, 9714, 9834, 9833
9782, 9714, 9715, 9835, 9834
9783, 9715, 9716, 9836, 9835
9784, 9716, 9717, 9837, 9836
9785, 9717, 9718, 9838, 9837
9786, 9718, 9719, 9839, 9838
9787, 9719, 9720, 9840, 9839
9788, 9720, 9721, 9841, 9840
9789, 9721, 9722, 9842, 9841
9790, 9722, 9723, 9843, 9842
9791, 9723, 9724, 9844, 9843
9792, 9724, 9725, 9845, 9844
9793, 9725, 9726, 9846, 9845
9794, 9726, 9727, 9847, 9846
9795, 9727, 9728, 9848, 9847
9796, 9728, 9729, 9849, 9848
9797, 9729, 9730, 9850, 9849
9798, 9730, 9731, 9851, 9850
9799, 9731, 9732, 9852, 9851
9800, 9732, 9733, 9853, 9852
9801, 9733, 9734, 9854, 9853
9802, 9734, 9735, 9855, 9854
9803, 9735, 9736, 9856, 9855
9804, 9736, 9737, 9857, 9856
9805, 9737, 9738, 9858, 9857
9806, 9738, 9739, 9859, 9858
9807, 9739, 9740, 9860, 9859
9808, 9740, 9741, 9861, 9860
9809, 9741, 9742, 9862, 9861
9810, 9742, 9743, 9863, 9862
9811, 9743, 9744, 9864, 9863
9812, 9744, 9745, 9865, 9864
9813, 9745, 9746, 9866, 9865
9814, 9746, 9747, 9867, 9866
9815, 9747, 9748, 9868, 9867
9816, 9748, 9749, 9869, 9868
9817, 9749, 9750, 9870, 9869
9818, 9750, 9751, 9871, 9870
9819, 9751, 9752, 9872, 9871
9820, 9752, 9753, 9873, 9872
9821, 9753, 9754, 9874, 9873
9822, 9754, 9755, 9875, 9874
9823, 9755, 9756, 9876, 9875
9824, 9756, 9757, 9877, 9876
9825, 9757, 9758, 9878, 9877
9826, 9758, 9759, 9879, 9878
9827, 9759, 9760, 9880, 9879
9828, 9760, 9761, 9881, 9880
9829, 9761, 9762, 9882, 9881
9830, 9762, 9763, 9883, 9882
9831, 9763, 9764, 9884, 9883
9832, 9764, 9765, 9885, 9884
9833, 9765, 9766, 9886, 9885
9834, 9766, 9767, 9887, 9886
9835, 9767, 9768, 9888, 9887
9836, 9768, 9769, 9889, 9888
9837, 9769, 9770, 9890, 9889
9838, 9770, 9771, 9891, 9890
9839, 9771, 9772, 9892, 9891
9840, 9772, 9773, 9893, 9892
9841, 9773, 9774, 9894, 9893
9842, 9774, 9775, 9895, 9894
9843, 9775, 9776, 9896, 9895
9844, 9776, 9777, 9897, 9896
9845, 9777, 9778, 9898, 9897
9846, 9778, 9779, 9899, 9898
9847, 9779, 9780, 9900, 9899
9848, 9780, 9781, 9901, 9900
9849, 9781, 9782, 9902, 9901
9850, 9782, 9783, 9903, 9902
9851, 9783, 9784, 9904, 9903
9852, 9784, 9785, 9905, 9904
9853, 9785, 9786, 9906, 9905
9854, 9786, 9787, 9907, 9906
9855, 9787, 9788, 9908, 9907
9856, 9788, 9789, 9909, 9908
9857, 9789, 9790, 9910, 9909
9858, 9790, 9791, 9911, 9910
9859, 9791, 9792, 9912, 9911
9860, 9792, 9793, 9913, 9912
9861, 9793, 9794, 9914, 9913
9862, 9794, 9795, 9915, 9914
9863, 9795, 9796, 9916, 9915
9864, 9796, 9797, 9917, 9916
9865, 9797, 9798, 9918, 9917
9866, 9798, 9799, 9919, 9918
9867, 9799, 9800, 9920, 9919
9868, 9800, 9801, 9921, 9920
9869, 9801, 9802, 9922, 9921
9870, 9802, 9803, 9923, 9922
9871, 9803, 9804, 9924, 9923
9872, 9804, 9805, 9925, 9924
9873, 9805, 9806, 9926, 9925
9874, 9806, 9807, 9927, 9926
9875, 9807, 9808, 9928, 9927
9876, 9808, 9809, 9929, 9928
9877, 9809, 9810, 9930, 9929
9878, 9810, 9811, 9931, 9930
9879, 9811, 9812, 9932, 9931
9880, 9812, 9813, 9933, 9932
9881, 9813, 9814, 9934, 9933
9882, 9814, 9815, 9935, 9934
9883, 9815, 9816, 9936, 9935
9884, 9816, 9817, 9937, 9936
9885, 9817, 9818, 9938, 9937
9886, 9818, 9819, 9939, 9938
9887, 9819, 9820, 9940, 9939
9888, 9820, 9701, 9821, 9940
9889, 9821, 9822, 9942, 9941
9890, 9822, 9823, 9943, 9942
9891, 9823, 9824, 9944, 9943
9892, 9824, 9825, 9945, 9944
9893, 9825, 9826, 9946, 9945
9894, 9826, 9827, 9947, 9946
9895, 9827, 9828, 9948, 9947
9896, 9828, 9829, 9949, 9948
9897, 9829, 9830, 9950, 9949
9898, 9830, 9831, 9951, 9950
9899, 9831, 9832, 9952, 9951
9900, 9832, 9833, 9953, 9952
9901, 9833, 9834, 9954, 9953
9902, 9834, 9835, 9955, 9954
9903, 9835, 9836, 9956, 9955
9904, 9836, 9837, 9957, 9956
9905, 9837, 9838, 9958, 9957
9906, 9838, 9839, 9959, 9958
9907, 9839, 9840, 9960, 9959
9908, 9840, 9841, 9961, 9960
9909, 9841, 9842, 9962, 9961
9910, 9842, 9843, 9963, 9962
9911, 9843, 9844, 9964, 9963
9912, 9844, 9845, 9965, 9964
9913, 9845, 9846, 9966, 9965
9914, 9846, 9847, 9967, 9966
9915, 9847, 9848, 9968, 9967
9916, 9848, 9849, 9969, 9968
9917, 9849, 9850, 9970, 9969
9918, 9850, 9851, 9971, 9970
9919, 9851, 9852, 9972, 9971
9920, 9852, 9853, 9973, 9972
9921, 9853, 9854, 9974, 9973
9922, 9854, 9855, 9975, 9974
9923, 9855, 9856, 9976, 9975
9924, 9856, 9857, 9977, 9976
9925, 9857, 9858, 9978, 9977
9926, 9858, 9859, 9979, 9978
9927, 9859, 9860, 9980, 9979
9928, 9860, 9861, 9981, 9980
9929, 9861, 9862, 9982, 9981
9930, 9862, 9863, 9983, 9982
9931, 9863, 9864, 9984, 9983
9932, 9864, 9865, 9985, 9984
9933, 9865, 9866, 9986, 9985
9934, 9866, 9867, 9987, 9986
9935, 9867, 9868, 9988, 9987
9936, 9868, 9869, 9989, 9988
9937, 9869, 9870, 9990, 9989
9938, 9870, 9871, 9991, 9990
9939, 9871, 9872, 9992, 9991
9940, 9872, 9873, 9993, 9992
9941, 9873, 9874, 9994, 9993
9942, 9874, 9875, 9995, 9994
9943, 9875, 9876, 9996, 9995
9944, 9876, 9877, 9997, 9996
9945, 9877, 9878, 9998, 9997
9946, 9878, 9879, 9999, 9998
9947, 9879, 9880, 10000, 9999
9948, 9880, 9881, 10001, 10000
9949, 9881, 9882, 10002, 10001
9950, 9882, 9883, 10003, 10002
9951, 9883, 9884, 10004, 10003
9952, 9884, 9885, 10005, 10004
9953, 9885, 9886, 10006, 10005
9954, 9886, 9887, 10007, 10006
9955, 9887, 9888, 10008, 10007
9956, 9888, 9889, 10009, 10008
9957, 9889, 9890, 10010, 10009
9958, 9890, 9891, 10011, 10010
9959, 9891, 9892, 10012, 10011
9960, 9892, 9893, 10013, 10012
9961, 9893, 9894, 10014, 10013
9962, 9894, 9895, 10015, 10014
9963, 9895, 9896, 10016, 10015
9964, 9896, 9897, 10017, 10016
9965, 9897, 9898, 10018, 10017
9966, 9898, 9899, 10019, 10018
9967, 9899, 9900, 10020, 10019
9968, 9900, 9901, 10021, 10020
9969, 9901, 9902, 10022, 10021
9970, 9902, 9903, 10023, 10022
9971, 9903, 9904, 10024, 10023
9972, 9904, 9905, 10025, 10024
9973, 9905, 9906, 10026, 10025
9974, 9906, 9907, 10027, 10026
9975, 9907, 9908, 10028, 10027
9976, 9908, 9909, 10029, 10028
9977, 9909, 9910, 10030, 10029
9978, 9910, 9911, 10031, 10030
9979, 9911, 9912, 10032, 10031
9980, 9912, 9913, 10033, 10032
9981, 9913, 9914, 10034, 10033
9982, 9914, 9915, 10035, 10034
9983, 9915, 9916, 10036, 10035
9984, 9916, 9917, 10037, 10036
9985, 9917, 9918, 10038, 10037
9986, 9918, 9919, 10039, 10038
9987, 9919, 9920, 10040, 10039
9988, 9920, 9921, 10041, 10040
9989, 9921, 9922, 10042, 10041
9990, 9922, 9923, 10043, 10042
9991, 9923, 9924, 10044, 10043
9992, 9924, 9925, 10045, 10044
9993, 9925, 9926, 10046, 10045
9994, 9926, 9927, 10047, 10046
9995, 9927, 9928, 10048, 10047
9996, 9928, 9929, 10049, 10048
9997, 9929, 9930, 10050, 10049
9998, 9930, 9931, 10051, 10050
9999, 9931, 9932, 10052, 10051
10000, 9932, 9933, 10053, 10052
10001, 9933, 9934, 10054, 10053
10002, 9934, 9935, 10055, 10054
10003, 9935, 9936, 10056, 10055
10004, 9936, 9937, 10057, 10056
10005, 9937, 9938, 10058, 10057
10006, 9938, 9939, 10059, 10058
10007, 9939, 9940, 10060, 10059
10008, 9940, 9821, 9941, 10060
10009, 9941, 9942, 10062, 10061
10010, 9942, 9943, 10063, 10062
10011, 9943, 9944, 10064, 10063
10012, 9944, 9945, 10065, 10064
10013, 9945, 9946, 10066, 10065
10014, 9946, 9947, 10067, 10066
10015, 9947, 9948, 10068, 10067
10016, 9948, 9949, 10069, 10068
10017, 9949, 9950, 10070, 10069
10018, 9950, 9951, 10071, 10070
10019, 9951, 9952, 10072, 10071
10020, 9952, 9953, 10073, 10072
10021, 9953, 9954, 10074, 10073
10022, 9954, 9955, 10075, 10074
10023, 9955, 9956, 10076, 10075
10024, 9956, 9957, 10077, 10076
10025, 9957, 9958, 10078, 10077
10026, 9958, 9959, 10079, 10078
10027, 9959, 9960, 10080, 10079
10028, 9960, 9961, 10081, 10080
10029, 9961, 9962, 10082, 10081
10030, 9962, 9963, 10083, 10082
10031, 9963, 9964, 10084, 10083
10032, 9964, 9965, 10085, 10084
10033, 9965, 9966, 10086, 10085
10034, 9966, 9967, 10087, 10086
10035, 9967, 9968, 10088, 10087
10036, 9968, 9969, 10089, 10088
10037, 9969, 9970, 10090, 10089
10038, 9970, 9971, 10091, 10090
10039, 9971, 9972, 10092, 10091
10040, 9972, 9973, 10093, 10092
10041, 9973, 9974, 10094, 10093
10042, 9974, 9975, 10095, 10094
10043, 9975, 9976, 10096, 10095
10044, 9976, 9977, 10097, 10096
10045, 9977, 9978, 10098, 10097
10046, 9978, 9979, 10099, 10098
10047, 9979, 9980, 10100, 10099
10048, 9980, 9981, 10101, 10100
10049, 9981, 9982, 10102, 10101
10050, 9982, 9983, 10103, 10102
10051, 9983, 9984, 10104, 10103
10052, 9984, 9985, 10105, 10104
10053, 9985, 9986, 10106, 10105
10054, 9986, 9987, 10107, 10106
10055, 9987, 9988, 10108, 10107
10056, 9988, 9989, 10109, 10108
10057, 9989, 9990, 10110, 10109
10058, 9990, 9991, 10111, 10110
10059, 9991, 9992, 10112, 10111
10060, 9992, 9993, 10113, 10112
10061, 9993, 9994, 10114, 10113
10062, 9994, 9995, 10115, 10114
10063, 9995, 9996, 10116, 10115
10064, 9996, 9997, 10117, 10116
10065, 9997, 9998, 10118, 10117
10066, 9998, 9999, 10119, 10118
10067, 9999, 10000, 10120, 10119
10068, 10000, 10001, 10121, 10120
10069, 10001, 10002, 10122, 10121
10070, 10002, 10003, 10123, 10122
10071, 10003, 10004, 10124, 10123
10072, 10004, 10005, 10125, 10124
10073, 10005, 10006, 10126, 10125
10074, 10006, 10007, 10127, 10126
10075, 10007, 10008, 10128, 10127
10076, 10008, 10009, 10129, 10128
10077, 10009, 10010, 10130, 10129
10078, 10010, 10011, 10131, 10130
10079, 10011, 10012, 10132, 10131
10080, 10012, 10013, 10133, 10132
10081, 10013, 10014, 10134, 10133
10082, 10014, 10015, 10135, 10134
10083, 10015, 10016, 10136, 10135
10084, 10016, 10017, 10137, 10136
10085, 10017, 10018, 10138, 10137
10086, 10018, 10019, 10139, 10138
10087, 10019, 10020, 10140, 10139
10088, 10020, 10021, 10141, 10140
10089, 10021, 10022, 10142, 10141
10090, 10022, 10023, 10143, 10142
10091, 10023, 10024, 10144, 10143
10092, 10024, 10025, 10145, 10144
10093, 10025, 10026, 10146, 10145
10094, 10026, 10027, 10147, 10146
10095, 10027, 10028, 10148, 10147
10096, 10028, 10029, 10149, 10148
10097, 10029, 10030, 10150, 10149
10098, 10030, 10031, 10151, 10150
10099, 10031, 10032, 10152, 10151
10100, 10032, 10033, 10153, 10152
10101, 10033, 10034, 10154, 10153
10102, 10034, 10035, 10155, 10154
10103, 10035, 10036, 10156, 10155
10104, 10036, 10037, 10157, 10156
10105, 10037, 10038, 10158, 10157
10106, 10038, 10039, 10159, 10158
10107, 10039, 10040, 10160, 10159
10108, 10040, 10041, 10161, 10160
10109, 10041, 10042, 10162, 10161
10110, 10042, 10043, 10163, 10162
10111, 10043, 10044, 10164, 10163
10112, 10044, 10045, 10165, 10164
10113, 10045, 10046, 10166, 10165
10114, 10046, 10047, 10167, 10166
10115, 10047, 10048, 10168, 10167
10116, 10048, 10049, 10169, 10168
10117, 10049, 10050, 10170, 10169
10118, 10050, 10051, 10171, 10170
10119, 10051, 10052, 10172, 10171
10120, 10052, 10053, 10173, 10172
10121, 10053, 10054, 10174, 10173
10122, 10054, 10055, 10175, 10174
10123, 10055, 10056, 10176, 10175
10124, 10056, 10057, 10177, 10176
10125, 10057, 10058, 10178, 10177
10126, 10058, 10059, 10179, 10178
10127, 10059, 10060, 10180, 10179
10128, 10060, 9941, 10061, 10180
10129, 10061, 10062, 10182, 10181
10130, 10062, 10063, 10183, 10182
10131, 10063, 10064, 10184, 10183
10132, 10064, 10065, 10185, 10184
10133, 10065, 10066, 10186, 10185
10134, 10066, 10067, 10187, 10186
10135, 10067, 10068, 10188, 10187
10136, 10068, 10069, 10189, 10188
10137, 10069, 10070, 10190, 10189
10138, 10070, 10071, 10191, 10190
10139, 10071, 10072, 10192, 10191
10140, 10072, 10073, 10193, 10192
10141, 10073, 10074, 10194, 10193
10142, 10074, 10075, 10195, 10194
10143, 10075, 10076, 10196, 10195
10144, 10076, 10077, 10197, 10196
10145, 10077, 10078, 10198, 10197
10146, 10078, 10079, 10199, 10198
10147, 10079, 10080, 10200, 10199
10148, 10080, 10081, 10201, 10200
10149, 10081, 10082, 10202, 10201
10150, 10082, 10083, 10203, 10202
10151, 10083, 10084, 10204, 10203
10152, 10084, 10085, 10205, 10204
10153, 10085, 10086, 10206, 10205
10154, 10086, 10087, 10207, 10206
10155, 10087, 10088, 10208, 10207
10156, 10088, 10089, 10209, 10208
10157, 10089, 10090, 10210, 10209
10158, 10090, 10091, 10211, 10210
10159, 10091, 10092, 10212, 10211
10160, 10092, 10093, 10213, 10212
10161, 10093, 10094, 10214, 10213
10162, 10094, 10095, 10215, 10214
10163, 10095, 10096, 10216, 10215
10164, 10096, 10097, 10217, 10216
10165, 10097, 10098, 10218, 10217
10166, 10098, 10099, 10219, 10218
10167, 10099, 10100, 10220, 10219
10168, 10100, 10101, 10221, 10220
10169, 10101, 10102, 10222, 10221
10170, 10102, 10103, 10223, 10222
10171, 10103, 10104, 10224, 10223
10172, 10104, 10105, 10225, 10224
10173, 10105, 10106, 10226, 10225
10174, 10106, 10107, 10227, 10226
10175, 10107, 10108, 10228, 10227
10176, 10108, 10109, 10229, 10228
10177, 10109, 10110, 10230, 10229
10178, 10110, 10111, 10231, 10230
10179, 10111, 10112, 10232, 10231
10180, 10112, 10113, 10233, 10232
10181, 10113, 10114, 10234, 10233
10182, 10114, 10115, 10235, 10234
10183, 10115, 10116, 10236, 10235
10184, 10116, 10117, 10237, 10236
10185, 10117, 10118, 10238, 10237
10186, 10118, 10119, 10239, 10238
10187, 10119, 10120, 10240, 10239
10188, 10120, 10121, 10241, 10240
10189, 10121, 10122, 10242, 10241
10190, 10122, 10123, 10243, 10242
10191, 10123, 10124, 10244, 10243
10192, 10124, 10125, 10245, 10244
10193, 10125, 10126, 10246, 10245
10194, 10126, 10127, 10247, 10246
10195, 10127, 10128, 10248, 10247
10196, 10128, 10129, 10249, 10248
10197, 10129, 10130, 10250, 10249
10198, 10130, 10131, 10251, 10250
10199, 10131, 10132, 10252, 10251
10200, 10132, 10133, 10253, 10252
10201, 10133, 10134, 10254, 10253
10202, 10134, 10135, 10255, 10254
10203, 10135, 10136, 10256, 10255
10204, 10136, 10137, 10257, 10256
10205, 10137, 10138, 10258, 10257
10206, 10138, 10139, 10259, 10258
10207, 10139, 10140, 10260, 10259
10208, 10140, 10141, 10261, 10260
10209, 10141, 10142, 10262, 10261
10210, 10142, 10143, 10263, 10262
10211, 10143, 10144, 10264, 10263
10212, 10144, 10145, 10265, 10264
10213, 10145, 10146, 10266, 10265
10214, 10146, 10147, 10267, 10266
10215, 10147, 10148, 10268, 10267
10216, 10148, 10149, 10269, 10268
10217, 10149, 10150, 10270, 10269
10218, 10150, 10151, 10271, 10270
10219, 10151, 10152, 10272, 10271
10220, 10152, 10153, 10273, 10272
10221, 10153, 10154, 10274, 10273
10222, 10154, 10155, 10275, 10274
10223, 10155, 10156, 10276, 10275
10224, 10156, 10157, 10277, 10276
10225, 10157, 10158, 10278, 10277
10226, 10158, 10159, 10279, 10278
10227, 10159, 10160, 10280, 10279
10228, 10160, 10161, 10281, 10280
10229, 10161, 10162, 10282, 10281
10230, 10162, 10163, 10283, 10282
10231, 10163, 10164, 10284, 10283
10232, 10164, 10165, 10285, 10284
10233, 10165, 10166, 10286, 10285
10234, 10166, 10167, 10287, 10286
10235, 10167, 10168, 10288, 10287
10236, 10168, 10169, 10289, 10288
10237, 10169, 10170, 10290, 10289
10238, 10170, 10171, 10291, 10290
10239, 10171, 10172, 10292, 10291
10240, 10172, 10173, 10293, 10292
10241, 10173, 10174, 10294, 10293
10242, 10174, 10175, 10295, 10294
10243, 10175, 10176, 10296, 10295
10244, 10176, 10177, 10297, 10296
10245, 10177, 10178, 10298, 10297
10246, 10178, 10179, 10299, 10298
10247, 10179, 10180, 10300, 10299
10248, 10180, 10061, 10181, 10300
10249, 10181, 10182, 10302, 10301
10250, 10182, 10183, 10303, 10302
10251, 10183, 10184, 10304, 10303
10252, 10184, 10185, 10305, 10304
10253, 10185, 10186, 10306, 10305
10254, 10186, 10187, 10307, 10306
10255, 10187, 10188, 10308, 10307
10256, 10188, 10189, 10309, 10308
10257, 10189, 10190, 10310, 10309
10258, 10190, 10191, 10311, 10310
10259, 10191, 10192, 10312, 10311
10260, 10192, 10193, 10313, 10312
10261, 10193, 10194, 10314, 10313
10262, 10194, 10195, 10315, 10314
10263, 10195, 10196, 10316, 10315
10264, 10196, 10197, 10317, 10316
10265, 10197, 10198, 10318, 10317
10266, 10198, 10199, 10319, 10318
10267, 10199, 10200, 10320, 10319
10268, 10200, 10201, 10321, 10320
10269, 10201, 10202, 10322, 10321
10270, 10202, 10203, 10323, 10322
10271, 10203, 10204, 10324, 10323
10272, 10204, 10205, 10325, 10324
10273, 10205, 10206, 10326, 10325
10274, 10206, 10207, 10327, 10326
10275, 10207, 10208, 10328, 10327
10276, 10208, 10209, 10329, 10328
10277, 10209, 10210, 10330, 10329
10278, 10210, 10211, 10331, 10330
10279, 10211, 10212, 10332, 10331
10280, 10212, 10213, 10333, 10332
10281, 10213, 10214, 10334, 10333
10282, 10214, 10215, 10335, 10334
10283, 10215, 10216, 10336, 10335
10284, 10216, 10217, 10337, 10336
10285, 10217, 10218, 10338, 10337
10286, 10218, 10219, 10339, 10338
10287, 10219, 10220, 10340, 10339
10288, 10220, 10221, 10341, 10340
10289, 10221, 10222, 10342, 10341
10290, 10222, 10223, 10343, 10342
10291, 10223, 10224, 10344, 10343
10292, 10224, 10225, 10345, 10344
10293, 10225, 10226, 10346, 10345
10294, 10226, 10227, 10347, 10346
10295, 10227, 10228, 10348, 10347
10296, 10228, 10229, 10349, 10348
10297, 10229, 10230, 10350, 10349
10298, 10230, 10231, 10351, 10350
10299, 10231, 10232, 10352, 10351
10300, 10232, 10233, 10353, 10352
10301, 10233, 10234, 10354, 10353
10302, 10234, 10235, 10355, 10354
10303, 10235, 10236, 10356, 10355
10304, 10236, 10237, 10357, 10356
10305, 10237, 10238, 10358, 10357
10306, 10238, 10239, 10359, 10358
10307, 10239, 10240, 10360, 10359
10308, 10240, 10241, 10361, 10360
10309, 10241, 10242, 10362, 10361
10310, 10242, 10243, 10363, 10362
10311, 10243, 10244, 10364, 10363
10312, 10244, 10245, 10365, 10364
10313, 10245, 10246, 10366, 10365
10314, 10246, 10247, 10367, 10366
10315, 10247, 10248, 10368, 10367
10316, 10248, 10249, 10369, 10368
10317, 10249, 10250, 10370, 10369
10318, 10250, 10251, 10371, 10370
10319, 10251, 10252, 10372, 10371
10320, 10252, 10253, 10373, 10372
10321, 10253, 10254, 10374, 10373
10322, 10254, 10255, 10375, 10374
10323, 10255, 10256, 10376, 10375
10324, 10256, 10257, 10377, 10376
10325, 10257, 10258, 10378, 10377
10326, 10258, 10259, 10379, 10378
10327, 10259, 10260, 10380, 10379
10328, 10260, 10261, 10381, 10380
10329, 10261, 10262, 10382, 10381
10330, 10262, 10263, 10383, 10382
10331, 10263, 10264, 10384, 10383
10332, 10264, 10265, 10385, 10384
10333, 10265, 10266, 10386, 10385
10334, 10266, 10267, 10387, 10386
10335, 10267, 10268, 10388, 10387
10336, 10268, 10269, 10389, 10388
10337, 10269, 10270, 10390, 10389
10338, 10270, 10271, 10391, 10390
10339, 10271, 10272, 10392, 10391
10340, 10272, 10273, 10393, 10392
10341, 10273, 10274, 10394, 10393
10342, 10274, 10275, 10395, 10394
10343, 10275, 10276, 10396, 10395
10344, 10276, 10277, 10397, 10396
10345, 10277, 10278, 10398, 10397
10346, 10278, 10279, 10399, 10398
10347, 10279, 10280, 10400, 10399
10348, 10280, 10281, 10401, 10400
10349, 10281, 10282, 10402, 10401
10350, 10282, 10283, 10403, 10402
10351, 10283, 10284, 10404, 10403
10352, 10284, 10285, 10405, 10404
10353, 10285, 10286, 10406, 10405
10354, 10286, 10287, 10407, 10406
10355, 10287, 10288, 10408, 10407
10356, 10288, 10289, 10409, 10408
10357, 10289, 10290, 10410, 10409
10358, 10290, 10291, 10411, 10410
10359, 10291, 10292, 10412, 10411
10360, 10292, 10293, 10413, 10412
10361, 10293, 10294, 10414, 10413
10362, 10294, 10295, 10415, 10414
10363, 10295, 10296, 10416, 10415
10364, 10296, 10297, 10417, 10416
10365, 10297, 10298, 10418, 10417
10366, 10298, 10299, 10419, 10418
10367, 10299, 10300, 10420, 10419
10368, 10300, 10181, 10301, 10420
10369, 10301, 10302, 10422, 10421
10370, 10302, 10303, 10423, 10422
10371, 10303, 10304, 10424, 10423
10372, 10304, 10305, 10425, 10424
10373, 10305, 10306, 10426, 10425
10374, 10306, 10307, 10427, 10426
10375, 10307, 10308, 10428, 10427
10376, 10308, 10309, 10429, 10428
10377, 10309, 10310, 10430, 10429
10378, 10310, 10311, 10431, 10430
10379, 10311, 10312, 10432, 10431
10380, 10312, 10313, 10433, 10432
10381, 10313, 10314, 10434, 10433
10382, 10314, 10315, 10435, 10434
10383, 10315, 10316, 10436, 10435
10384, 10316, 10317, 10437, 10436
10385, 10317, 10318, 10438, 10437
10386, 10318, 10319, 10439, 10438
10387, 10319, 10320, 10440, 10439
10388, 10320, 10321, 10441, 10440
10389, 10321, 10322, 10442, 10441
10390, 10322, 10323, 10443, 10442
10391, 10323, 10324, 10444, 10443
10392, 10324, 10325, 10445, 10444
10393, 10325, 10326, 10446, 10445
10394, 10326, 10327, 10447, 10446
10395, 10327, 10328, 10448, 10447
10396, 10328, 10329, 10449, 10448
10397, 10329, 10330, 10450, 10449
10398, 10330, 10331, 10451, 10450
10399, 10331, 10332, 10452, 10451
10400, 10332, 10333, 10453, 10452
10401, 10333, 10334, 10454, 10453
10402, 10334, 10335, 10455, 10454
10403, 10335, 10336, 10456, 10455
10404, 10336, 10337, 10457, 10456
10405, 10337, 10338, 10458, 10457
10406, 10338, 10339, 10459, 10458
10407, 10339, 10340, 10460, 10459
10408, 10340, 10341, 10461, 10460
10409, 10341, 10342, 10462, 10461
10410, 10342, 10343, 10463, 10462
10411, 10343, 10344, 10464, 10463
10412, 10344, 10345, 10465, 10464
10413, 10345, 10346, 10466, 10465
10414, 10346, 10347, 10467, 10466
10415, 10347, 10348, 10468, 10467
10416, 10348, 10349, 10469, 10468
10417, 10349, 10350, 10470, 10469
10418, 10350, 10351, 10471, 10470
10419, 10351, 10352, 10472, 10471
10420, 10352, 10353, 10473, 10472
10421, 10353, 10354, 10474, 10473
10422, 10354, 10355, 10475, 10474
10423, 10355, 10356, 10476, 10475
10424, 10356, 10357, 10477, 10476
10425, 10357, 10358, 10478, 10477
10426, 10358, 10359, 10479, 10478
10427, 10359, 10360, 10480, 10479
10428, 10360, 10361, 10481, 10480
10429, 10361, 10362, 10482, 10481
10430, 10362, 10363, 10483, 10482
10431, 10363, 10364, 10484, 10483
10432, 10364, 10365, 10485, 10484
10433, 10365, 10366, 10486, 10485
10434, 10366, 10367, 10487, 10486
10435, 10367, 10368, 10488, 10487
10436, 10368, 10369, 10489, 10488
10437, 10369, 10370, 10490, 10489
10438, 10370, 10371, 10491, 10490
10439, 10371, 10372, 10492, 10491
10440, 10372, 10373, 10493, 10492
10441, 10373, 10374, 10494, 10493
10442, 10374, 10375, 10495, 10494
10443, 10375, 10376, 10496, 10495
10444, 10376, 10377, 10497, 10496
10445, 10377, 10378, 10498, 10497
10446, 10378, 10379, 10499, 10498
10447, 10379, 10380, 10500, 10499
10448, 10380, 10381, 10501, 10500
10449, 10381, 10382, 10502, 10501
10450, 10382, 10383, 10503, 10502
10451, 10383, 10384, 10504, 10503
10452, 10384, 10385, 10505, 10504
10453, 10385, 10386, 10506, 10505
10454, 10386, 10387, 10507, 10506
10455, 10387, 10388, 10508, 10507
10456, 10388, 10389, 10509, 10508
10457, 10389, 10390, 10510, 10509
10458, 10390, 10391, 10511, 10510
10459, 10391, 10392, 10512, 10511
10460, 10392, 10393, 10513, 10512
10461, 10393, 10394, 10514, 10513
10462, 10394, 10395, 10515, 10514
10463, 10395, 10396, 10516, 10515
10464, 10396, 10397, 10517, 10516
10465, 10397, 10398, 10518, 10517
10466, 10398, 10399, 10519, 10518
10467, 10399, 10400, 10520, 10519
10468, 10400, 10401, 10521, 10520
10469, 10401, 10402, 10522, 10521
10470, 10402, 10403, 10523, 10522
10471, 10403, 10404, 10524, 10523
10472, 10404, 10405, 10525, 10524
10473, 10405, 10406, 10526, 10525
10474, 10406, 10407, 10527, 10526
10475, 10407, 10408, 10528, 10527
10476, 10408, 10409, 10529, 10528
10477, 10409, 10410, 10530, 10529
10478, 10410, 10411, 10531, 10530
10479, 10411, 10412, 10532, 10531
10480, 10412, 10413, 10533, 10532
10481, 10413, 10414, 10534, 10533
10482, 10414, 10415, 10535, 10534
10483, 10415, 10416, 10536, 10535
10484, 10416, 10417, 10537, 10536
10485, 10417, 10418, 10538, 10537
10486, 10418, 10419, 10539, 10538
10487, 10419, 10420, 10540, 10539
10488, 10420, 10301, 10421, 10540
10489, 10421, 10422, 10542, 10541
10490, 10422, 10423, 10543, 10542
10491, 10423, 10424, 10544, 10543
10492, 10424, 10425, 10545, 10544
10493, 10425, 10426, 10546, 10545
10494, 10426, 10427, 10547, 10546
10495, 10427, 10428, 10548, 10547
10496, 10428, 10429, 10549, 10548
10497, 10429, 10430, 10550, 10549
10498, 10430, 10431, 10551, 10550
10499, 10431, 10432, 10552, 10551
10500, 10432, 10433, 10553, 10552
10501, 10433, 10434, 10554, 10553
10502, 10434, 10435, 10555, 10554
10503, 10435, 10436, 10556, 10555
10504, 10436, 10437, 10557, 10556
10505, 10437, 10438, 10558, 10557
10506, 10438, 10439, 10559, 10558
10507, 10439, 10440, 10560, 10559
10508, 10440, 10441, 10561, 10560
10509, 10441, 10442, 10562, 10561
10510, 10442, 10443, 10563, 10562
10511, 10443, 10444, 10564, 10563
10512, 10444, 10445, 10565, 10564
10513, 10445, 10446, 10566, 10565
10514, 10446, 10447, 10567, 10566
10515, 10447, 10448, 10568, 10567
10516, 10448, 10449, 10569, 10568
10517, 10449, 10450, 10570, 10569
10518, 10450, 10451, 10571, 10570
10519, 10451, 10452, 10572, 10571
10520, 10452, 10453, 10573, 10572
10521, 10453, 10454, 10574, 10573
10522, 10454, 10455, 10575, 10574
10523, 10455, 10456, 10576, 10575
10524, 10456, 10457, 10577, 10576
10525, 10457, 10458, 10578, 10577
10526, 10458, 10459, 10579, 10578
10527, 10459, 10460, 10580, 10579
10528, 10460, 10461, 10581, 10580
10529, 10461, 10462, 10582, 10581
10530, 10462, 10463, 10583, 10582
10531, 10463, 10464, 10584, 10583
10532, 10464, 10465, 10585, 10584
10533, 10465, 10466, 10586, 10585
10534, 10466, 10467, 10587, 10586
10535, 10467, 10468, 10588, 10587
10536, 10468, 10469, 10589, 10588
10537, 10469, 10470, 10590, 10589
10538, 10470, 10471, 10591, 10590
10539, 10471, 10472, 10592, 10591
10540, 10472, 10473, 10593, 10592
10541, 10473, 10474, 10594, 10593
10542, 10474, 10475, 10595, 10594
10543, 10475, 10476, 10596, 10595
10544, 10476, 10477, 10597, 10596
10545, 10477, 10478, 10598, 10597
10546, 10478, 10479, 10599, 10598
10547, 10479, 10480, 10600, 10599
10548, 10480, 10481, 10601, 10600
10549, 10481, 10482, 10602, 10601
10550, 10482, 10483, 10603, 10602
10551, 10483, 10484, 10604, 10603
10552, 10484, 10485, 10605, 10604
10553, 10485, 10486, 10606, 10605
10554, 10486, 10487, 10607, 10606
10555, 10487, 10488, 10608, 10607
10556, 10488, 10489, 10609, 10608
10557, 10489, 10490, 10610, 10609
10558, 10490, 10491, 10611, 10610
10559, 10491, 10492, 10612, 10611
10560, 10492, 10493, 10613, 10612
10561, 10493, 10494, 10614, 10613
10562, 10494, 10495, 10615, 10614
10563, 10495, 10496, 10616, 10615
10564, 10496, 10497, 10617, 10616
10565, 10497, 10498, 10618, 10617
10566, 10498, 10499, 10619, 10618
10567, 10499, 10500, 10620, 10619
10568, 10500, 10501, 10621, 10620
10569, 10501, 10502, 10622, 10621
10570, 10502, 10503, 10623, 10622
10571, 10503, 10504, 10624, 10623
10572, 10504, 10505, 10625, 10624
10573, 10505, 10506, 10626, 10625
10574, 10506, 10507, 10627, 10626
10575, 10507, 10508, 10628, 10627
10576, 10508, 10509, 10629, 10628
10577, 10509, 10510, 10630, 10629
10578, 10510, 10511, 10631, 10630
10579, 10511, 10512, 10632, 10631
10580, 10512, 10513, 10633, 10632
10581, 10513, 10514, 10634, 10633
10582, 10514, 10515, 10635, 10634
10583, 10515, 10516, 10636, 10635
10584, 10516, 10517, 10637, 10636
10585, 10517, 10518, 10638, 10637
10586, 10518, 10519, 10639, 10638
10587, 10519, 10520, 10640, 10639
10588, 10520, 10521, 10641, 10640
10589, 10521, 10522, 10642, 10641
10590, 10522, 10523, 10643, 10642
10591, 10523, 10524, 10644, 10643
10592, 10524, 10525, 10645, 10644
10593, 10525, 10526, 10646, 10645
10594, 10526, 10527, 10647, 10646
10595, 10527, 10528, 10648, 10647
10596, 10528, 10529, 10649, 10648
10597, 10529, 10530, 10650, 10649
10598, 10530, 10531, 10651, 10650
10599, 10531, 10532, 10652, 10651
10600, 10532, 10533, 10653, 10652
10601, 10533, 10534, 10654, 10653
10602, 10534, 10535, 10655, 10654
10603, 10535, 10536, 10656, 10655
10604, 10536, 10537, 10657, 10656
10605, 10537, 10538, 10658, 10657
10606, 10538, 10539, 10659, 10658
10607, 10539, 10540, 10660, 10659
10608, 10540, 10421, 10541, 10660
10609, 10541, 10542, 10662, 10661
10610, 10542, 10543, 10663, 10662
10611, 10543, 10544, 10664, 10663
10612, 10544, 10545, 10665, 10664
10613, 10545, 10546, 10666, 10665
10614, 10546, 10547, 10667, 10666
10615, 10547, 10548, 10668, 10667
10616, 10548, 10549, 10669, 10668
10617, 10549, 10550, 10670, 10669
10618, 10550, 10551, 10671, 10670
10619, 10551, 10552, 10672, 10671
10620, 10552, 10553, 10673, 10672
10621, 10553, 10554, 10674, 10673
10622, 10554, 10555, 10675, 10674
10623, 10555, 10556, 10676, 10675
10624, 10556, 10557, 10677, 10676
10625, 10557, 10558, 10678, 10677
10626, 10558, 10559, 10679, 10678
10627, 10559, 10560, 10680, 10679
10628, 10560, 10561, 10681, 10680
10629, 10561, 10562, 10682, 10681
10630, 10562, 10563, 10683, 10682
10631, 10563, 10564, 10684, 10683
10632, 10564, 10565, 10685, 10684
10633, 10565, 10566, 10686, 10685
10634, 10566, 10567, 10687, 10686
10635, 10567, 10568, 10688, 10687
10636, 10568, 10569, 10689, 10688
10637, 10569, 10570, 10690, 10689
10638, 10570, 10571, 10691, 10690
10639, 10571, 10572, 10692, 10691
10640, 10572, 10573, 10693, 10692
10641, 10573, 10574, 10694, 10693
10642, 10574, 10575, 10695, 10694
10643, 10575, 10576, 10696, 10695
10644, 10576, 10577, 10697, 10696
10645, 10577, 10578, 10698, 10697
10646, 10578, 10579, 10699, 10698
10647, 10579, 10580, 10700, 10699
10648, 10580, 10581, 10701, 10700
10649, 10581, 10582, 10702, 10701
10650, 10582, 10583, 10703, 10702
10651, 10583, 10584, 10704, 10703
10652, 10584, 10585, 10705, 10704
10653, 10585, 10586, 10706, 10705
10654, 10586, 10587, 10707, 10706
10655, 10587, 10588, 10708, 10707
10656, 10588, 10589, 10709, 10708
10657, 10589, 10590, 10710, 10709
10658, 10590, 10591, 10711, 10710
10659, 10591, 10592, 10712, 10711
10660, 10592, 10593, 10713, 10712
10661, 10593, 10594, 10714, 10713
10662, 10594, 10595, 10715, 10714
10663, 10595, 10596, 10716, 10715
10664, 10596, 10597, 10717, 10716
10665, 10597, 10598, 10718, 10717
10666, 10598, 10599, 10719, 10718
10667, 10599, 10600, 10720, 10719
10668, 10600, 10601, 10721, 10720
10669, 10601, 10602, 10722, 10721
10670, 10602, 10603, 10723, 10722
10671, 10603, 10604, 10724, 10723
10672, 10604, 10605, 10725, 10724
10673, 10605, 10606, 10726, 10725
10674, 10606, 10607, 10727, 10726
10675, 10607, 10608, 10728, 10727
10676, 10608, 10609, 10729, 10728
10677, 10609, 10610, 10730, 10729
10678, 10610, 10611, 10731, 10730
10679, 10611, 10612, 10732, 10731
10680, 10612, 10613, 10733, 10732
10681, 10613, 10614, 10734, 10733
10682, 10614, 10615, 10735, 10734
10683, 10615, 10616, 10736, 10735
10684, 10616, 10617, 10737, 10736
10685, 10617, 10618, 10738, 10737
10686, 10618, 10619, 10739, 10738
10687, 10619, 10620, 10740, 10739
10688, 10620, 10621, 10741, 10740
10689, 10621, 10622, 10742, 10741
10690, 10622, 10623, 10743, 10742
10691, 10623, 10624, 10744, 10743
10692, 10624, 10625, 10745, 10744
10693, 10625, 10626, 10746, 10745
10694, 10626, 10627, 10747, 10746
10695, 10627, 10628, 10748, 10747
10696, 10628, 10629, 10749, 10748
10697, 10629, 10630, 10750, 10749
10698, 10630, 10631, 10751, 10750
10699, 10631, 10632, 10752, 10751
10700, 10632, 10633, 10753, 10752
10701, 10633, 10634, 10754, 10753
10702, 10634, 10635, 10755, 10754
10703, 10635, 10636, 10756, 10755
10704, 10636, 10637, 10757, 10756
10705, 10637, 10638, 10758, 10757
10706, 10638, 10639, 10759, 10758
10707, 10639, 10640, 10760, 10759
10708, 10640, 10641, 10761, 10760
10709, 10641, 10642, 10762, 10761
10710, 10642, 10643, 10763, 10762
10711, 10643, 10644, 10764, 10763
10712, 10644, 10645, 10765, 10764
10713, 10645, 10646, 10766, 10765
10714, 10646, 10647, 10767, 10766
10715, 10647, 10648, 10768, 10767
10716, 10648, 10649, 10769, 10768
10717, 10649, 10650, 10770, 10769
10718, 10650, 10651, 10771, 10770
10719, 10651, 10652, 10772, 10771
10720, 10652, 10653, 10773, 10772
10721, 10653, 10654, 10774, 10773
10722, 10654, 10655, 10775, 10774
10723, 10655, 10656, 10776, 10775
10724, 10656, 10657, 10777, 10776
10725, 10657, 10658, 10778, 10777
10726, 10658, 10659, 10779, 10778
10727, 10659, 10660, 10780, 10779
10728, 10660, 10541, 10661, 10780
*Element, type=R3D3
49, 100, 102, 101
50, 100, 103, 102
51, 100, 104, 103
52, 100, 105, 104
53, 100, 106, 105
54, 100, 107, 106
55, 100, 108, 107
56, 100, 109, 108
57, 100, 110, 109
58, 100, 111, 110
59, 100, 112, 111
60, 100, 113, 112
61, 100, 114, 113
62, 100, 115, 114
63, 100, 116, 115
64, 100, 117, 116
65, 100, 118, 117
66, 100, 119, 118
67, 100, 120, 119
68, 100, 121, 120
69, 100, 122, 121
70, 100, 123, 122
71, 100, 124, 123
72, 100, 125, 124
73, 100, 126, 125
74, 100, 127, 126
75, 100, 128, 127
76, 100, 129, 128
77, 100, 130, 129
78, 100, 131, 130
79, 100, 132, 131
80, 100, 133, 132
81, 100, 134, 133
82, 100, 135, 134
83, 100, 136, 135
84, 100, 137, 136
85, 100, 138, 137
86, 100, 139, 138
87, 100, 140, 139
88, 100, 141, 140
89, 100, 142, 141
90, 100, 143, 142
91, 100, 144, 143
92, 100, 145, 144
93, 100, 146, 145
94, 100, 147, 146
95, 100, 148, 147
96, 100, 149, 148
97, 100, 150, 149
98, 100, 151, 150
99, 100, 152, 151
100, 100, 153, 152
101, 100, 154, 153
102, 100, 155, 154
103, 100, 156, 155
104, 100, 157, 156
105, 100, 158, 157
106, 100, 159, 158
107, 100, 160, 159
108, 100, 161, 160
109, 100, 162, 161
110, 100, 163, 162
111, 100, 164, 163
112, 100, 165, 164
113, 100, 166, 165
114, 100, 167, 166
115, 100, 168, 167
116, 100, 169, 168
117, 100, 170, 169
118, 100, 171, 170
119, 100, 172, 171
120, 100, 173, 172
121, 100, 174, 173
122, 100, 175, 174
123, 100, 176, 175
124, 100, 177, 176
125, 100, 178, 177
126, 100, 179, 178
127, 100, 180, 179
128, 100, 181, 180
129, 100, 182, 181
130, 100, 183, 182
131, 100, 184, 183
132, 100, 185, 184
133, 100, 186, 185
134, 100, 187, 186
135, 100, 188, 187
136, 100, 189, 188
137, 100, 190, 189
138, 100, 191, 190
139, 100, 192, 191
140, 100, 193, 192
141, 100, 194, 193
142, 100, 195, 194
143, 100, 196, 195
144, 100, 197, 196
145, 100, 198, 197
146, 100, 199, 198
147, 100, 200, 199
148, 100, 201, 200
149, 100, 202, 201
150, 100, 203, 202
151, 100, 204, 203
152, 100, 205, 204
153, 100, 206, 205
154, 100, 207, 206
155, 100, 208, 207
156, 100, 209, 208
157, 100, 210, 209
158, 100, 211, 210
159, 100, 212, 211
160, 100, 213, 212
161, 100, 214, 213
162, 100, 215, 214
163, 100, 216, 215
164, 100, 217, 216
165, 100, 218, 217
166, 100, 219, 218
167, 100, 220, 219
168, 100, 101, 220
10729, 10782, 10661, 10662
10730, 10782, 10662, 10663
10731, 10782, 10663, 10664
10732, 10782, 10664, 10665
10733, 10782, 10665, 10666
10734, 10782, 10666, 10667
10735, 10782, 10667, 10668
10736, 10782, 10668, 10669
10737, 10782, 10669, 10670
10738, 10782, 10670, 10671
10739, 10782, 10671, 10672
10740, 10782, 10672, 10673
10741, 10782, 10673, 10674
10742, 10782, 10674, 10675
10743, 10782, 10675, 10676
10744, 10782, 10676, 10677
10745, 10782, 10677, 10678
10746, 10782, 10678, 10679
10747, 10782, 10679, 10680
10748, 10782, 10680, 10681
10749, 10782, 10681, 10682
10750, 10782, 10682, 10683
10751, 10782, 10683, 10684
10752, 10782, 10684, 10685
10753, 10782, 10685, 10686
10754, 10782, 10686, 10687
10755, 10782, 10687, 10688
10756, 10782, 10688, 10689
10757, 10782, 10689, 10690
10758, 10782, 10690, 10691
10759, 10782, 10691, 10692
10760, 10782, 10692, 10693
10761, 10782, 10693, 10694
10762, 10782, 10694, 10695
10763, 10782, 10695, 10696
10764, 10782, 10696, 10697
10765, 10782, 10697, 10698
10766, 10782, 10698, 10699
10767, 10782, 10699, 10700
10768, 10782, 10700, 10701
10769, 10782, 10701, 10702
10770, 10782, 10702, 10703
10771, 10782, 10703, 10704
10772, 10782, 10704, 10705
10773, 10782, 10705, 10706
10774, 10782, 10706, 10707
10775, 10782, 10707, 10708
10776, 10782, 10708, 10709
10777, 10782, 10709, 10710
10778, 10782, 10710, 10711
10779, 10782, 10711, 10712
10780, 10782, 10712, 10713
10781, 10782, 10713, 10714
10782, 10782, 10714, 10715
10783, 10782, 10715, 10716
10784, 10782, 10716, 10717
10785, 10782, 10717, 10718
10786, 10782, 10718, 10719
10787, 10782, 10719, 10720
10788, 10782, 10720, 10721
10789, 10782, 10721, 10722
10790, 10782, 10722, 10723
10791, 10782, 10723, 10724
10792, 10782, 10724, 10725
10793, 10782, 10725, 10726
10794, 10782, 10726, 10727
10795, 10782, 10727, 10728
10796, 10782, 10728, 10729
10797, 10782, 10729, 10730
10798, 10782, 10730, 10731
10799, 10782, 10731, 10732
10800, 10782, 10732, 10733
10801, 10782, 10733, 10734
10802, 10782, 10734, 10735
10803, 10782, 10735, 10736
10804, 10782, 10736, 10737
10805, 10782, 10737, 10738
10806, 10782, 10738, 10739
10807, 10782, 10739, 10740
10808, 10782, 10740, 10741
10809, 10782, 10741, 10742
10810, 10782, 10742, 10743
10811, 10782, 10743, 10744
10812, 10782, 10744, 10745
10813, 10782, 10745, 10746
10814, 10782, 10746, 10747
10815, 10782, 10747, 10748
10816, 10782, 10748, 10749
10817, 10782, 10749, 10750
10818, 10782, 10750, 10751
10819, 10782, 10751, 10752
10820, 10782, 10752, 10753
10821, 10782, 10753, 10754
10822, 10782, 10754, 10755
10823, 10782, 10755, 10756
10824, 10782, 10756, 10757
10825, 10782, 10757, 10758
10826, 10782, 10758, 10759
10827, 10782, 10759, 10760
10828, 10782, 10760, 10761
10829, 10782, 10761, 10762
10830, 10782, 10762, 10763
10831, 10782, 10763, 10764
10832, 10782, 10764, 10765
10833, 10782, 10765, 10766
10834, 10782, 10766, 10767
10835, 10782, 10767, 10768
10836, 10782, 10768, 10769
10837, 10782, 10769, 10770
10838, 10782, 10770, 10771
10839, 10782, 10771, 10772
10840, 10782, 10772, 10773
10841, 10782, 10773, 10774
10842, 10782, 10774, 10775
10843, 10782, 10775, 10776
10844, 10782, 10776, 10777
10845, 10782, 10777, 10778
10846, 10782, 10778, 10779
10847, 10782, 10779, 10780
10848, 10782, 10780, 10661
*Element, type=MASS
10849, 10783
*Element, type=ROTARYI
10850, 10783
*Elset, elset=BALLMASS
10849,
*Elset, elset=BALLINERTIA
10850,
*Elset, elset=PLIES, generate
1, 32, 1
*Elset, elset=INTERFACES, generate
33, 48, 1
*Elset, elset=IFACE1
33, 34, 35, 36, 37, 38, 39, 40, 41, 42, 43, 44, 45, 46, 47, 48,
*Elset, elset=BALL, generate
49, 10848, 1
*Rigid Body, ref node=10783, elset=BALL
*Nset, nset=FRAME
1, 2, 3, 4, 5, 6, 10, 11, 15, 16, 20, 21, 22, 23, 24, 25,
26, 27, 28, 29, 30, 31, 35, 36, 40, 41, 45, 46, 47, 48, 49, 50,
51, 52, 53, 54, 55, 56, 60, 61, 65, 66, 70, 71, 72, 73, 74, 75,
76, 77, 78, 79, 80, 81, 85, 86, 90, 91, 95, 96, 97, 98, 99, 100,
*Nset, nset=BALLREF
10783,
*Nset, nset=TOPCENTRE
88,
*Orientation, name=Fibre
1., 0., 0., 0., 1., 0.
3, 0.
*Section Controls, name=SC, max degradation=1.0
*Solid Section, elset=PLIES, material=PLY, orientation=Fibre, controls=SC
,
*Cohesive Section, elset=INTERFACES, material=IFACE, response=TRACTION SEPARATION, controls=SC
1.0,
*Material, name=PLY
*Density
1650.0,
*Elastic, type=ENGINEERING CONSTANTS
1.281e11, 8.2e9, 8.2e9, 0.27, 0.27, 0.20, 4.7e9, 4.7e9
3.44e9,
** Diagnostic only: the failure index locates intralaminar failure but,
** as check_damage_degradation.py shows, it does not degrade a solid
** element. The stiffness reduction comes from the cohesive interfaces.
*Damage Initiation, criterion=MAX STRESS
1.5e9, 1.2e9, 5.0e7, 2.0e8, 5.0e7, 2.0e8, 7.0e7, 7.0e7,
5.0e7
*Damage Evolution, type=ENERGY
9.16e4
*Material, name=IFACE
*Density
1650.0,
*Elastic, type=TRACTION
1e+16, 1e+16, 1e+16
*Damage Initiation, criterion=QUADS
30e6, 30e6, 30e6
*Damage Evolution, type=ENERGY, mixed mode behavior=BK, power=2
1.0e3, 1.0e3, 1.0e3
*Mass, elset=BALLMASS
3.967622e-03,
** Rotational inertia of a solid sphere, 2/5 m r^2. A central impact does
** not spin the ball; the value is here so the rigid body is well posed.
*Rotary Inertia, elset=BALLINERTIA
2.539278e-08, 2.539278e-08, 2.539278e-08
*Initial Conditions, type=VELOCITY
10783, 3, 3, -1.771476e+00
*Surface Interaction, name=FRIC
*Friction
0.3,
*Contact, op=NEW
*Contact Inclusions, ALL EXTERIOR
*Contact Property Assignment
 ,  , FRIC
*Step, name=IMPACT, nlgeom=NO
*Dynamic, Explicit
, 2e-05
*Bulk Viscosity
0.06, 1.2
*Boundary
FRAME, ENCASTRE
*Output, field, number interval=50
*Node Output
U, V
*Element Output
S, SDEG
*Contact Output
CSTRESS
*Output, history, time interval=5e-07
*Node Output, nset=BALLREF
V3
*Node Output, nset=TOPCENTRE
U3
*Energy Output
ALLKE, ALLIE, ALLSE, ALLAE, ALLDMD, ALLPD, ALLWK, ETOTAL
*End Step
