*Heading
** Guided-wave plate, T300/F593 unidirectional, 100 kHz five-cycle Hann burst.
** Generated by make_abaqus_inp.py; NOT verified in Abaqus (see README).
*Preprint, echo=NO, model=NO, history=NO, contact=NO
**
*Part, name=Part-1
*Node
1, 0.0000000e+00, 0.0000000e+00, 0.0000000e+00
2, 1.2500000e-02, 0.0000000e+00, 0.0000000e+00
3, 2.5000000e-02, 0.0000000e+00, 0.0000000e+00
4, 3.7500000e-02, 0.0000000e+00, 0.0000000e+00
5, 5.0000000e-02, 0.0000000e+00, 0.0000000e+00
6, 6.2500000e-02, 0.0000000e+00, 0.0000000e+00
7, 7.5000000e-02, 0.0000000e+00, 0.0000000e+00
8, 8.7500000e-02, 0.0000000e+00, 0.0000000e+00
9, 1.0000000e-01, 0.0000000e+00, 0.0000000e+00
10, 1.1250000e-01, 0.0000000e+00, 0.0000000e+00
11, 1.2500000e-01, 0.0000000e+00, 0.0000000e+00
12, 1.3750000e-01, 0.0000000e+00, 0.0000000e+00
13, 1.5000000e-01, 0.0000000e+00, 0.0000000e+00
14, 1.6250000e-01, 0.0000000e+00, 0.0000000e+00
15, 1.7500000e-01, 0.0000000e+00, 0.0000000e+00
16, 1.8750000e-01, 0.0000000e+00, 0.0000000e+00
17, 2.0000000e-01, 0.0000000e+00, 0.0000000e+00
18, 2.1250000e-01, 0.0000000e+00, 0.0000000e+00
19, 2.2500000e-01, 0.0000000e+00, 0.0000000e+00
20, 2.3750000e-01, 0.0000000e+00, 0.0000000e+00
21, 2.5000000e-01, 0.0000000e+00, 0.0000000e+00
22, 2.6250000e-01, 0.0000000e+00, 0.0000000e+00
23, 2.7500000e-01, 0.0000000e+00, 0.0000000e+00
24, 2.8750000e-01, 0.0000000e+00, 0.0000000e+00
25, 3.0000000e-01, 0.0000000e+00, 0.0000000e+00
26, 3.1250000e-01, 0.0000000e+00, 0.0000000e+00
27, 3.2500000e-01, 0.0000000e+00, 0.0000000e+00
28, 3.3750000e-01, 0.0000000e+00, 0.0000000e+00
29, 3.5000000e-01, 0.0000000e+00, 0.0000000e+00
30, 3.6250000e-01, 0.0000000e+00, 0.0000000e+00
31, 3.7500000e-01, 0.0000000e+00, 0.0000000e+00
32, 3.8750000e-01, 0.0000000e+00, 0.0000000e+00
33, 4.0000000e-01, 0.0000000e+00, 0.0000000e+00
34, 4.1250000e-01, 0.0000000e+00, 0.0000000e+00
35, 4.2500000e-01, 0.0000000e+00, 0.0000000e+00
36, 4.3750000e-01, 0.0000000e+00, 0.0000000e+00
37, 4.5000000e-01, 0.0000000e+00, 0.0000000e+00
38, 4.6250000e-01, 0.0000000e+00, 0.0000000e+00
39, 4.7500000e-01, 0.0000000e+00, 0.0000000e+00
40, 4.8750000e-01, 0.0000000e+00, 0.0000000e+00
41, 5.0000000e-01, 0.0000000e+00, 0.0000000e+00
42, 0.0000000e+00, 1.2500000e-02, 0.0000000e+00
43, 1.2500000e-02, 1.2500000e-02, 0.0000000e+00
44, 2.5000000e-02, 1.2500000e-02, 0.0000000e+00
45, 3.7500000e-02, 1.2500000e-02, 0.0000000e+00
46, 5.0000000e-02, 1.2500000e-02, 0.0000000e+00
47, 6.2500000e-02, 1.2500000e-02, 0.0000000e+00
48, 7.5000000e-02, 1.2500000e-02, 0.0000000e+00
49, 8.7500000e-02, 1.2500000e-02, 0.0000000e+00
50, 1.0000000e-01, 1.2500000e-02, 0.0000000e+00
51, 1.1250000e-01, 1.2500000e-02, 0.0000000e+00
52, 1.2500000e-01, 1.2500000e-02, 0.0000000e+00
53, 1.3750000e-01, 1.2500000e-02, 0.0000000e+00
54, 1.5000000e-01, 1.2500000e-02, 0.0000000e+00
55, 1.6250000e-01, 1.2500000e-02, 0.0000000e+00
56, 1.7500000e-01, 1.2500000e-02, 0.0000000e+00
57, 1.8750000e-01, 1.2500000e-02, 0.0000000e+00
58, 2.0000000e-01, 1.2500000e-02, 0.0000000e+00
59, 2.1250000e-01, 1.2500000e-02, 0.0000000e+00
60, 2.2500000e-01, 1.2500000e-02, 0.0000000e+00
61, 2.3750000e-01, 1.2500000e-02, 0.0000000e+00
62, 2.5000000e-01, 1.2500000e-02, 0.0000000e+00
63, 2.6250000e-01, 1.2500000e-02, 0.0000000e+00
64, 2.7500000e-01, 1.2500000e-02, 0.0000000e+00
65, 2.8750000e-01, 1.2500000e-02, 0.0000000e+00
66, 3.0000000e-01, 1.2500000e-02, 0.0000000e+00
67, 3.1250000e-01, 1.2500000e-02, 0.0000000e+00
68, 3.2500000e-01, 1.2500000e-02, 0.0000000e+00
69, 3.3750000e-01, 1.2500000e-02, 0.0000000e+00
70, 3.5000000e-01, 1.2500000e-02, 0.0000000e+00
71, 3.6250000e-01, 1.2500000e-02, 0.0000000e+00
72, 3.7500000e-01, 1.2500000e-02, 0.0000000e+00
73, 3.8750000e-01, 1.2500000e-02, 0.0000000e+00
74, 4.0000000e-01, 1.2500000e-02, 0.0000000e+00
75, 4.1250000e-01, 1.2500000e-02, 0.0000000e+00
76, 4.2500000e-01, 1.2500000e-02, 0.0000000e+00
77, 4.3750000e-01, 1.2500000e-02, 0.0000000e+00
78, 4.5000000e-01, 1.2500000e-02, 0.0000000e+00
79, 4.6250000e-01, 1.2500000e-02, 0.0000000e+00
80, 4.7500000e-01, 1.2500000e-02, 0.0000000e+00
81, 4.8750000e-01, 1.2500000e-02, 0.0000000e+00
82, 5.0000000e-01, 1.2500000e-02, 0.0000000e+00
83, 0.0000000e+00, 2.5000000e-02, 0.0000000e+00
84, 1.2500000e-02, 2.5000000e-02, 0.0000000e+00
85, 2.5000000e-02, 2.5000000e-02, 0.0000000e+00
86, 3.7500000e-02, 2.5000000e-02, 0.0000000e+00
87, 5.0000000e-02, 2.5000000e-02, 0.0000000e+00
88, 6.2500000e-02, 2.5000000e-02, 0.0000000e+00
89, 7.5000000e-02, 2.5000000e-02, 0.0000000e+00
90, 8.7500000e-02, 2.5000000e-02, 0.0000000e+00
91, 1.0000000e-01, 2.5000000e-02, 0.0000000e+00
92, 1.1250000e-01, 2.5000000e-02, 0.0000000e+00
93, 1.2500000e-01, 2.5000000e-02, 0.0000000e+00
94, 1.3750000e-01, 2.5000000e-02, 0.0000000e+00
95, 1.5000000e-01, 2.5000000e-02, 0.0000000e+00
96, 1.6250000e-01, 2.5000000e-02, 0.0000000e+00
97, 1.7500000e-01, 2.5000000e-02, 0.0000000e+00
98, 1.8750000e-01, 2.5000000e-02, 0.0000000e+00
99, 2.0000000e-01, 2.5000000e-02, 0.0000000e+00
100, 2.1250000e-01, 2.5000000e-02, 0.0000000e+00
101, 2.2500000e-01, 2.5000000e-02, 0.0000000e+00
102, 2.3750000e-01, 2.5000000e-02, 0.0000000e+00
103, 2.5000000e-01, 2.5000000e-02, 0.0000000e+00
104, 2.6250000e-01, 2.5000000e-02, 0.0000000e+00
105, 2.7500000e-01, 2.5000000e-02, 0.0000000e+00
106, 2.8750000e-01, 2.5000000e-02, 0.0000000e+00
107, 3.0000000e-01, 2.5000000e-02, 0.0000000e+00
108, 3.1250000e-01, 2.5000000e-02, 0.0000000e+00
109, 3.2500000e-01, 2.5000000e-02, 0.0000000e+00
110, 3.3750000e-01, 2.5000000e-02, 0.0000000e+00
111, 3.5000000e-01, 2.5000000e-02, 0.0000000e+00
112, 3.6250000e-01, 2.5000000e-02, 0.0000000e+00
113, 3.7500000e-01, 2.5000000e-02, 0.0000000e+00
114, 3.8750000e-01, 2.5000000e-02, 0.0000000e+00
115, 4.0000000e-01, 2.5000000e-02, 0.0000000e+00
116, 4.1250000e-01, 2.5000000e-02, 0.0000000e+00
117, 4.2500000e-01, 2.5000000e-02, 0.0000000e+00
118, 4.3750000e-01, 2.5000000e-02, 0.0000000e+00
119, 4.5000000e-01, 2.5000000e-02, 0.0000000e+00
120, 4.6250000e-01, 2.5000000e-02, 0.0000000e+00
121, 4.7500000e-01, 2.5000000e-02, 0.0000000e+00
122, 4.8750000e-01, 2.5000000e-02, 0.0000000e+00
123, 5.0000000e-01, 2.5000000e-02, 0.0000000e+00
124, 0.0000000e+00, 3.7500000e-02, 0.0000000e+00
125, 1.2500000e-02, 3.7500000e-02, 0.0000000e+00
126, 2.5000000e-02, 3.7500000e-02, 0.0000000e+00
127, 3.7500000e-02, 3.7500000e-02, 0.0000000e+00
128, 5.0000000e-02, 3.7500000e-02, 0.0000000e+00
129, 6.2500000e-02, 3.7500000e-02, 0.0000000e+00
130, 7.5000000e-02, 3.7500000e-02, 0.0000000e+00
131, 8.7500000e-02, 3.7500000e-02, 0.0000000e+00
132, 1.0000000e-01, 3.7500000e-02, 0.0000000e+00
133, 1.1250000e-01, 3.7500000e-02, 0.0000000e+00
134, 1.2500000e-01, 3.7500000e-02, 0.0000000e+00
135, 1.3750000e-01, 3.7500000e-02, 0.0000000e+00
136, 1.5000000e-01, 3.7500000e-02, 0.0000000e+00
137, 1.6250000e-01, 3.7500000e-02, 0.0000000e+00
138, 1.7500000e-01, 3.7500000e-02, 0.0000000e+00
139, 1.8750000e-01, 3.7500000e-02, 0.0000000e+00
140, 2.0000000e-01, 3.7500000e-02, 0.0000000e+00
141, 2.1250000e-01, 3.7500000e-02, 0.0000000e+00
142, 2.2500000e-01, 3.7500000e-02, 0.0000000e+00
143, 2.3750000e-01, 3.7500000e-02, 0.0000000e+00
144, 2.5000000e-01, 3.7500000e-02, 0.0000000e+00
145, 2.6250000e-01, 3.7500000e-02, 0.0000000e+00
146, 2.7500000e-01, 3.7500000e-02, 0.0000000e+00
147, 2.8750000e-01, 3.7500000e-02, 0.0000000e+00
148, 3.0000000e-01, 3.7500000e-02, 0.0000000e+00
149, 3.1250000e-01, 3.7500000e-02, 0.0000000e+00
150, 3.2500000e-01, 3.7500000e-02, 0.0000000e+00
151, 3.3750000e-01, 3.7500000e-02, 0.0000000e+00
152, 3.5000000e-01, 3.7500000e-02, 0.0000000e+00
153, 3.6250000e-01, 3.7500000e-02, 0.0000000e+00
154, 3.7500000e-01, 3.7500000e-02, 0.0000000e+00
155, 3.8750000e-01, 3.7500000e-02, 0.0000000e+00
156, 4.0000000e-01, 3.7500000e-02, 0.0000000e+00
157, 4.1250000e-01, 3.7500000e-02, 0.0000000e+00
158, 4.2500000e-01, 3.7500000e-02, 0.0000000e+00
159, 4.3750000e-01, 3.7500000e-02, 0.0000000e+00
160, 4.5000000e-01, 3.7500000e-02, 0.0000000e+00
161, 4.6250000e-01, 3.7500000e-02, 0.0000000e+00
162, 4.7500000e-01, 3.7500000e-02, 0.0000000e+00
163, 4.8750000e-01, 3.7500000e-02, 0.0000000e+00
164, 5.0000000e-01, 3.7500000e-02, 0.0000000e+00
165, 0.0000000e+00, 5.0000000e-02, 0.0000000e+00
166, 1.2500000e-02, 5.0000000e-02, 0.0000000e+00
167, 2.5000000e-02, 5.0000000e-02, 0.0000000e+00
168, 3.7500000e-02, 5.0000000e-02, 0.0000000e+00
169, 5.0000000e-02, 5.0000000e-02, 0.0000000e+00
170, 6.2500000e-02, 5.0000000e-02, 0.0000000e+00
171, 7.5000000e-02, 5.0000000e-02, 0.0000000e+00
172, 8.7500000e-02, 5.0000000e-02, 0.0000000e+00
173, 1.0000000e-01, 5.0000000e-02, 0.0000000e+00
174, 1.1250000e-01, 5.0000000e-02, 0.0000000e+00
175, 1.2500000e-01, 5.0000000e-02, 0.0000000e+00
176, 1.3750000e-01, 5.0000000e-02, 0.0000000e+00
177, 1.5000000e-01, 5.0000000e-02, 0.0000000e+00
178, 1.6250000e-01, 5.0000000e-02, 0.0000000e+00
179, 1.7500000e-01, 5.0000000e-02, 0.0000000e+00
180, 1.8750000e-01, 5.0000000e-02, 0.0000000e+00
181, 2.0000000e-01, 5.0000000e-02, 0.0000000e+00
182, 2.1250000e-01, 5.0000000e-02, 0.0000000e+00
183, 2.2500000e-01, 5.0000000e-02, 0.0000000e+00
184, 2.3750000e-01, 5.0000000e-02, 0.0000000e+00
185, 2.5000000e-01, 5.0000000e-02, 0.0000000e+00
186, 2.6250000e-01, 5.0000000e-02, 0.0000000e+00
187, 2.7500000e-01, 5.0000000e-02, 0.0000000e+00
188, 2.8750000e-01, 5.0000000e-02, 0.0000000e+00
189, 3.0000000e-01, 5.0000000e-02, 0.0000000e+00
190, 3.1250000e-01, 5.0000000e-02, 0.0000000e+00
191, 3.2500000e-01, 5.0000000e-02, 0.0000000e+00
192, 3.3750000e-01, 5.0000000e-02, 0.0000000e+00
193, 3.5000000e-01, 5.0000000e-02, 0.0000000e+00
194, 3.6250000e-01, 5.0000000e-02, 0.0000000e+00
195, 3.7500000e-01, 5.0000000e-02, 0.0000000e+00
196, 3.8750000e-01, 5.0000000e-02, 0.0000000e+00
197, 4.0000000e-01, 5.0000000e-02, 0.0000000e+00
198, 4.1250000e-01, 5.0000000e-02, 0.0000000e+00
199, 4.2500000e-01, 5.0000000e-02, 0.0000000e+00
200, 4.3750000e-01, 5.0000000e-02, 0.0000000e+00
201, 4.5000000e-01, 5.0000000e-02, 0.0000000e+00
202, 4.6250000e-01, 5.0000000e-02, 0.0000000e+00
203, 4.7500000e-01, 5.0000000e-02, 0.0000000e+00
204, 4.8750000e-01, 5.0000000e-02, 0.0000000e+00
205, 5.0000000e-01, 5.0000000e-02, 0.0000000e+00
206, 0.0000000e+00, 6.2500000e-02, 0.0000000e+00
207, 1.2500000e-02, 6.2500000e-02, 0.0000000e+00
208, 2.5000000e-02, 6.2500000e-02, 0.0000000e+00
209, 3.7500000e-02, 6.2500000e-02, 0.0000000e+00
210, 5.0000000e-02, 6.2500000e-02, 0.0000000e+00
211, 6.2500000e-02, 6.2500000e-02, 0.0000000e+00
212, 7.5000000e-02, 6.2500000e-02, 0.0000000e+00
213, 8.7500000e-02, 6.2500000e-02, 0.0000000e+00
214, 1.0000000e-01, 6.2500000e-02, 0.0000000e+00
215, 1.1250000e-01, 6.2500000e-02, 0.0000000e+00
216, 1.2500000e-01, 6.2500000e-02, 0.0000000e+00
217, 1.3750000e-01, 6.2500000e-02, 0.0000000e+00
218, 1.5000000e-01, 6.2500000e-02, 0.0000000e+00
219, 1.6250000e-01, 6.2500000e-02, 0.0000000e+00
220, 1.7500000e-01, 6.2500000e-02, 0.0000000e+00
221, 1.8750000e-01, 6.2500000e-02, 0.0000000e+00
222, 2.0000000e-01, 6.2500000e-02, 0.0000000e+00
223, 2.1250000e-01, 6.2500000e-02, 0.0000000e+00
224, 2.2500000e-01, 6.2500000e-02, 0.0000000e+00
225, 2.3750000e-01, 6.2500000e-02, 0.0000000e+00
226, 2.5000000e-01, 6.2500000e-02, 0.0000000e+00
227, 2.6250000e-01, 6.2500000e-02, 0.0000000e+00
228, 2.7500000e-01, 6.2500000e-02, 0.0000000e+00
229, 2.8750000e-01, 6.2500000e-02, 0.0000000e+00
230, 3.0000000e-01, 6.2500000e-02, 0.0000000e+00
231, 3.1250000e-01, 6.2500000e-02, 0.0000000e+00
232, 3.2500000e-01, 6.2500000e-02, 0.0000000e+00
233, 3.3750000e-01, 6.2500000e-02, 0.0000000e+00
234, 3.5000000e-01, 6.2500000e-02, 0.0000000e+00
235, 3.6250000e-01, 6.2500000e-02, 0.0000000e+00
236, 3.7500000e-01, 6.2500000e-02, 0.0000000e+00
237, 3.8750000e-01, 6.2500000e-02, 0.0000000e+00
238, 4.0000000e-01, 6.2500000e-02, 0.0000000e+00
239, 4.1250000e-01, 6.2500000e-02, 0.0000000e+00
240, 4.2500000e-01, 6.2500000e-02, 0.0000000e+00
241, 4.3750000e-01, 6.2500000e-02, 0.0000000e+00
242, 4.5000000e-01, 6.2500000e-02, 0.0000000e+00
243, 4.6250000e-01, 6.2500000e-02, 0.0000000e+00
244, 4.7500000e-01, 6.2500000e-02, 0.0000000e+00
245, 4.8750000e-01, 6.2500000e-02, 0.0000000e+00
246, 5.0000000e-01, 6.2500000e-02, 0.0000000e+00
247, 0.0000000e+00, 7.5000000e-02, 0.0000000e+00
248, 1.2500000e-02, 7.5000000e-02, 0.0000000e+00
249, 2.5000000e-02, 7.5000000e-02, 0.0000000e+00
250, 3.7500000e-02, 7.5000000e-02, 0.0000000e+00
251, 5.0000000e-02, 7.5000000e-02, 0.0000000e+00
252, 6.2500000e-02, 7.5000000e-02, 0.0000000e+00
253, 7.5000000e-02, 7.5000000e-02, 0.0000000e+00
254, 8.7500000e-02, 7.5000000e-02, 0.0000000e+00
255, 1.0000000e-01, 7.5000000e-02, 0.0000000e+00
256, 1.1250000e-01, 7.5000000e-02, 0.0000000e+00
257, 1.2500000e-01, 7.5000000e-02, 0.0000000e+00
258, 1.3750000e-01, 7.5000000e-02, 0.0000000e+00
259, 1.5000000e-01, 7.5000000e-02, 0.0000000e+00
260, 1.6250000e-01, 7.5000000e-02, 0.0000000e+00
261, 1.7500000e-01, 7.5000000e-02, 0.0000000e+00
262, 1.8750000e-01, 7.5000000e-02, 0.0000000e+00
263, 2.0000000e-01, 7.5000000e-02, 0.0000000e+00
264, 2.1250000e-01, 7.5000000e-02, 0.0000000e+00
265, 2.2500000e-01, 7.5000000e-02, 0.0000000e+00
266, 2.3750000e-01, 7.5000000e-02, 0.0000000e+00
267, 2.5000000e-01, 7.5000000e-02, 0.0000000e+00
268, 2.6250000e-01, 7.5000000e-02, 0.0000000e+00
269, 2.7500000e-01, 7.5000000e-02, 0.0000000e+00
270, 2.8750000e-01, 7.5000000e-02, 0.0000000e+00
271, 3.0000000e-01, 7.5000000e-02, 0.0000000e+00
272, 3.1250000e-01, 7.5000000e-02, 0.0000000e+00
273, 3.2500000e-01, 7.5000000e-02, 0.0000000e+00
274, 3.3750000e-01, 7.5000000e-02, 0.0000000e+00
275, 3.5000000e-01, 7.5000000e-02, 0.0000000e+00
276, 3.6250000e-01, 7.5000000e-02, 0.0000000e+00
277, 3.7500000e-01, 7.5000000e-02, 0.0000000e+00
278, 3.8750000e-01, 7.5000000e-02, 0.0000000e+00
279, 4.0000000e-01, 7.5000000e-02, 0.0000000e+00
280, 4.1250000e-01, 7.5000000e-02, 0.0000000e+00
281, 4.2500000e-01, 7.5000000e-02, 0.0000000e+00
282, 4.3750000e-01, 7.5000000e-02, 0.0000000e+00
283, 4.5000000e-01, 7.5000000e-02, 0.0000000e+00
284, 4.6250000e-01, 7.5000000e-02, 0.0000000e+00
285, 4.7500000e-01, 7.5000000e-02, 0.0000000e+00
286, 4.8750000e-01, 7.5000000e-02, 0.0000000e+00
287, 5.0000000e-01, 7.5000000e-02, 0.0000000e+00
288, 0.0000000e+00, 8.7500000e-02, 0.0000000e+00
289, 1.2500000e-02, 8.7500000e-02, 0.0000000e+00
290, 2.5000000e-02, 8.7500000e-02, 0.0000000e+00
291, 3.7500000e-02, 8.7500000e-02, 0.0000000e+00
292, 5.0000000e-02, 8.7500000e-02, 0.0000000e+00
293, 6.2500000e-02, 8.7500000e-02, 0.0000000e+00
294, 7.5000000e-02, 8.7500000e-02, 0.0000000e+00
295, 8.7500000e-02, 8.7500000e-02, 0.0000000e+00
296, 1.0000000e-01, 8.7500000e-02, 0.0000000e+00
297, 1.1250000e-01, 8.7500000e-02, 0.0000000e+00
298, 1.2500000e-01, 8.7500000e-02, 0.0000000e+00
299, 1.3750000e-01, 8.7500000e-02, 0.0000000e+00
300, 1.5000000e-01, 8.7500000e-02, 0.0000000e+00
301, 1.6250000e-01, 8.7500000e-02, 0.0000000e+00
302, 1.7500000e-01, 8.7500000e-02, 0.0000000e+00
303, 1.8750000e-01, 8.7500000e-02, 0.0000000e+00
304, 2.0000000e-01, 8.7500000e-02, 0.0000000e+00
305, 2.1250000e-01, 8.7500000e-02, 0.0000000e+00
306, 2.2500000e-01, 8.7500000e-02, 0.0000000e+00
307, 2.3750000e-01, 8.7500000e-02, 0.0000000e+00
308, 2.5000000e-01, 8.7500000e-02, 0.0000000e+00
309, 2.6250000e-01, 8.7500000e-02, 0.0000000e+00
310, 2.7500000e-01, 8.7500000e-02, 0.0000000e+00
311, 2.8750000e-01, 8.7500000e-02, 0.0000000e+00
312, 3.0000000e-01, 8.7500000e-02, 0.0000000e+00
313, 3.1250000e-01, 8.7500000e-02, 0.0000000e+00
314, 3.2500000e-01, 8.7500000e-02, 0.0000000e+00
315, 3.3750000e-01, 8.7500000e-02, 0.0000000e+00
316, 3.5000000e-01, 8.7500000e-02, 0.0000000e+00
317, 3.6250000e-01, 8.7500000e-02, 0.0000000e+00
318, 3.7500000e-01, 8.7500000e-02, 0.0000000e+00
319, 3.8750000e-01, 8.7500000e-02, 0.0000000e+00
320, 4.0000000e-01, 8.7500000e-02, 0.0000000e+00
321, 4.1250000e-01, 8.7500000e-02, 0.0000000e+00
322, 4.2500000e-01, 8.7500000e-02, 0.0000000e+00
323, 4.3750000e-01, 8.7500000e-02, 0.0000000e+00
324, 4.5000000e-01, 8.7500000e-02, 0.0000000e+00
325, 4.6250000e-01, 8.7500000e-02, 0.0000000e+00
326, 4.7500000e-01, 8.7500000e-02, 0.0000000e+00
327, 4.8750000e-01, 8.7500000e-02, 0.0000000e+00
328, 5.0000000e-01, 8.7500000e-02, 0.0000000e+00
329, 0.0000000e+00, 1.0000000e-01, 0.0000000e+00
330, 1.2500000e-02, 1.0000000e-01, 0.0000000e+00
331, 2.5000000e-02, 1.0000000e-01, 0.0000000e+00
332, 3.7500000e-02, 1.0000000e-01, 0.0000000e+00
333, 5.0000000e-02, 1.0000000e-01, 0.0000000e+00
334, 6.2500000e-02, 1.0000000e-01, 0.0000000e+00
335, 7.5000000e-02, 1.0000000e-01, 0.0000000e+00
336, 8.7500000e-02, 1.0000000e-01, 0.0000000e+00
337, 1.0000000e-01, 1.0000000e-01, 0.0000000e+00
338, 1.1250000e-01, 1.0000000e-01, 0.0000000e+00
339, 1.2500000e-01, 1.0000000e-01, 0.0000000e+00
340, 1.3750000e-01, 1.0000000e-01, 0.0000000e+00
341, 1.5000000e-01, 1.0000000e-01, 0.0000000e+00
342, 1.6250000e-01, 1.0000000e-01, 0.0000000e+00
343, 1.7500000e-01, 1.0000000e-01, 0.0000000e+00
344, 1.8750000e-01, 1.0000000e-01, 0.0000000e+00
345, 2.0000000e-01, 1.0000000e-01, 0.0000000e+00
346, 2.1250000e-01, 1.0000000e-01, 0.0000000e+00
347, 2.2500000e-01, 1.0000000e-01, 0.0000000e+00
348, 2.3750000e-01, 1.0000000e-01, 0.0000000e+00
349, 2.5000000e-01, 1.0000000e-01, 0.0000000e+00
350, 2.6250000e-01, 1.0000000e-01, 0.0000000e+00
351, 2.7500000e-01, 1.0000000e-01, 0.0000000e+00
352, 2.8750000e-01, 1.0000000e-01, 0.0000000e+00
353, 3.0000000e-01, 1.0000000e-01, 0.0000000e+00
354, 3.1250000e-01, 1.0000000e-01, 0.0000000e+00
355, 3.2500000e-01, 1.0000000e-01, 0.0000000e+00
356, 3.3750000e-01, 1.0000000e-01, 0.0000000e+00
357, 3.5000000e-01, 1.0000000e-01, 0.0000000e+00
358, 3.6250000e-01, 1.0000000e-01, 0.0000000e+00
359, 3.7500000e-01, 1.0000000e-01, 0.0000000e+00
360, 3.8750000e-01, 1.0000000e-01, 0.0000000e+00
361, 4.0000000e-01, 1.0000000e-01, 0.0000000e+00
362, 4.1250000e-01, 1.0000000e-01, 0.0000000e+00
363, 4.2500000e-01, 1.0000000e-01, 0.0000000e+00
364, 4.3750000e-01, 1.0000000e-01, 0.0000000e+00
365, 4.5000000e-01, 1.0000000e-01, 0.0000000e+00
366, 4.6250000e-01, 1.0000000e-01, 0.0000000e+00
367, 4.7500000e-01, 1.0000000e-01, 0.0000000e+00
368, 4.8750000e-01, 1.0000000e-01, 0.0000000e+00
369, 5.0000000e-01, 1.0000000e-01, 0.0000000e+00
370, 0.0000000e+00, 1.1250000e-01, 0.0000000e+00
371, 1.2500000e-02, 1.1250000e-01, 0.0000000e+00
372, 2.5000000e-02, 1.1250000e-01, 0.0000000e+00
373, 3.7500000e-02, 1.1250000e-01, 0.0000000e+00
374, 5.0000000e-02, 1.1250000e-01, 0.0000000e+00
375, 6.2500000e-02, 1.1250000e-01, 0.0000000e+00
376, 7.5000000e-02, 1.1250000e-01, 0.0000000e+00
377, 8.7500000e-02, 1.1250000e-01, 0.0000000e+00
378, 1.0000000e-01, 1.1250000e-01, 0.0000000e+00
379, 1.1250000e-01, 1.1250000e-01, 0.0000000e+00
380, 1.2500000e-01, 1.1250000e-01, 0.0000000e+00
381, 1.3750000e-01, 1.1250000e-01, 0.0000000e+00
382, 1.5000000e-01, 1.1250000e-01, 0.0000000e+00
383, 1.6250000e-01, 1.1250000e-01, 0.0000000e+00
384, 1.7500000e-01, 1.1250000e-01, 0.0000000e+00
385, 1.8750000e-01, 1.1250000e-01, 0.0000000e+00
386, 2.0000000e-01, 1.1250000e-01, 0.0000000e+00
387, 2.1250000e-01, 1.1250000e-01, 0.0000000e+00
388, 2.2500000e-01, 1.1250000e-01, 0.0000000e+00
389, 2.3750000e-01, 1.1250000e-01, 0.0000000e+00
390, 2.5000000e-01, 1.1250000e-01, 0.0000000e+00
391, 2.6250000e-01, 1.1250000e-01, 0.0000000e+00
392, 2.7500000e-01, 1.1250000e-01, 0.0000000e+00
393, 2.8750000e-01, 1.1250000e-01, 0.0000000e+00
394, 3.0000000e-01, 1.1250000e-01, 0.0000000e+00
395, 3.1250000e-01, 1.1250000e-01, 0.0000000e+00
396, 3.2500000e-01, 1.1250000e-01, 0.0000000e+00
397, 3.3750000e-01, 1.1250000e-01, 0.0000000e+00
398, 3.5000000e-01, 1.1250000e-01, 0.0000000e+00
399, 3.6250000e-01, 1.1250000e-01, 0.0000000e+00
400, 3.7500000e-01, 1.1250000e-01, 0.0000000e+00
401, 3.8750000e-01, 1.1250000e-01, 0.0000000e+00
402, 4.0000000e-01, 1.1250000e-01, 0.0000000e+00
403, 4.1250000e-01, 1.1250000e-01, 0.0000000e+00
404, 4.2500000e-01, 1.1250000e-01, 0.0000000e+00
405, 4.3750000e-01, 1.1250000e-01, 0.0000000e+00
406, 4.5000000e-01, 1.1250000e-01, 0.0000000e+00
407, 4.6250000e-01, 1.1250000e-01, 0.0000000e+00
408, 4.7500000e-01, 1.1250000e-01, 0.0000000e+00
409, 4.8750000e-01, 1.1250000e-01, 0.0000000e+00
410, 5.0000000e-01, 1.1250000e-01, 0.0000000e+00
411, 0.0000000e+00, 1.2500000e-01, 0.0000000e+00
412, 1.2500000e-02, 1.2500000e-01, 0.0000000e+00
413, 2.5000000e-02, 1.2500000e-01, 0.0000000e+00
414, 3.7500000e-02, 1.2500000e-01, 0.0000000e+00
415, 5.0000000e-02, 1.2500000e-01, 0.0000000e+00
416, 6.2500000e-02, 1.2500000e-01, 0.0000000e+00
417, 7.5000000e-02, 1.2500000e-01, 0.0000000e+00
418, 8.7500000e-02, 1.2500000e-01, 0.0000000e+00
419, 1.0000000e-01, 1.2500000e-01, 0.0000000e+00
420, 1.1250000e-01, 1.2500000e-01, 0.0000000e+00
421, 1.2500000e-01, 1.2500000e-01, 0.0000000e+00
422, 1.3750000e-01, 1.2500000e-01, 0.0000000e+00
423, 1.5000000e-01, 1.2500000e-01, 0.0000000e+00
424, 1.6250000e-01, 1.2500000e-01, 0.0000000e+00
425, 1.7500000e-01, 1.2500000e-01, 0.0000000e+00
426, 1.8750000e-01, 1.2500000e-01, 0.0000000e+00
427, 2.0000000e-01, 1.2500000e-01, 0.0000000e+00
428, 2.1250000e-01, 1.2500000e-01, 0.0000000e+00
429, 2.2500000e-01, 1.2500000e-01, 0.0000000e+00
430, 2.3750000e-01, 1.2500000e-01, 0.0000000e+00
431, 2.5000000e-01, 1.2500000e-01, 0.0000000e+00
432, 2.6250000e-01, 1.2500000e-01, 0.0000000e+00
433, 2.7500000e-01, 1.2500000e-01, 0.0000000e+00
434, 2.8750000e-01, 1.2500000e-01, 0.0000000e+00
435, 3.0000000e-01, 1.2500000e-01, 0.0000000e+00
436, 3.1250000e-01, 1.2500000e-01, 0.0000000e+00
437, 3.2500000e-01, 1.2500000e-01, 0.0000000e+00
438, 3.3750000e-01, 1.2500000e-01, 0.0000000e+00
439, 3.5000000e-01, 1.2500000e-01, 0.0000000e+00
440, 3.6250000e-01, 1.2500000e-01, 0.0000000e+00
441, 3.7500000e-01, 1.2500000e-01, 0.0000000e+00
442, 3.8750000e-01, 1.2500000e-01, 0.0000000e+00
443, 4.0000000e-01, 1.2500000e-01, 0.0000000e+00
444, 4.1250000e-01, 1.2500000e-01, 0.0000000e+00
445, 4.2500000e-01, 1.2500000e-01, 0.0000000e+00
446, 4.3750000e-01, 1.2500000e-01, 0.0000000e+00
447, 4.5000000e-01, 1.2500000e-01, 0.0000000e+00
448, 4.6250000e-01, 1.2500000e-01, 0.0000000e+00
449, 4.7500000e-01, 1.2500000e-01, 0.0000000e+00
450, 4.8750000e-01, 1.2500000e-01, 0.0000000e+00
451, 5.0000000e-01, 1.2500000e-01, 0.0000000e+00
452, 0.0000000e+00, 1.3750000e-01, 0.0000000e+00
453, 1.2500000e-02, 1.3750000e-01, 0.0000000e+00
454, 2.5000000e-02, 1.3750000e-01, 0.0000000e+00
455, 3.7500000e-02, 1.3750000e-01, 0.0000000e+00
456, 5.0000000e-02, 1.3750000e-01, 0.0000000e+00
457, 6.2500000e-02, 1.3750000e-01, 0.0000000e+00
458, 7.5000000e-02, 1.3750000e-01, 0.0000000e+00
459, 8.7500000e-02, 1.3750000e-01, 0.0000000e+00
460, 1.0000000e-01, 1.3750000e-01, 0.0000000e+00
461, 1.1250000e-01, 1.3750000e-01, 0.0000000e+00
462, 1.2500000e-01, 1.3750000e-01, 0.0000000e+00
463, 1.3750000e-01, 1.3750000e-01, 0.0000000e+00
464, 1.5000000e-01, 1.3750000e-01, 0.0000000e+00
465, 1.6250000e-01, 1.3750000e-01, 0.0000000e+00
466, 1.7500000e-01, 1.3750000e-01, 0.0000000e+00
467, 1.8750000e-01, 1.3750000e-01, 0.0000000e+00
468, 2.0000000e-01, 1.3750000e-01, 0.0000000e+00
469, 2.1250000e-01, 1.3750000e-01, 0.0000000e+00
470, 2.2500000e-01, 1.3750000e-01, 0.0000000e+00
471, 2.3750000e-01, 1.3750000e-01, 0.0000000e+00
472, 2.5000000e-01, 1.3750000e-01, 0.0000000e+00
473, 2.6250000e-01, 1.3750000e-01, 0.0000000e+00
474, 2.7500000e-01, 1.3750000e-01, 0.0000000e+00
475, 2.8750000e-01, 1.3750000e-01, 0.0000000e+00
476, 3.0000000e-01, 1.3750000e-01, 0.0000000e+00
477, 3.1250000e-01, 1.3750000e-01, 0.0000000e+00
478, 3.2500000e-01, 1.3750000e-01, 0.0000000e+00
479, 3.3750000e-01, 1.3750000e-01, 0.0000000e+00
480, 3.5000000e-01, 1.3750000e-01, 0.0000000e+00
481, 3.6250000e-01, 1.3750000e-01, 0.0000000e+00
482, 3.7500000e-01, 1.3750000e-01, 0.0000000e+00
483, 3.8750000e-01, 1.3750000e-01, 0.0000000e+00
484, 4.0000000e-01, 1.3750000e-01, 0.0000000e+00
485, 4.1250000e-01, 1.3750000e-01, 0.0000000e+00
486, 4.2500000e-01, 1.3750000e-01, 0.0000000e+00
487, 4.3750000e-01, 1.3750000e-01, 0.0000000e+00
488, 4.5000000e-01, 1.3750000e-01, 0.0000000e+00
489, 4.6250000e-01, 1.3750000e-01, 0.0000000e+00
490, 4.7500000e-01, 1.3750000e-01, 0.0000000e+00
491, 4.8750000e-01, 1.3750000e-01, 0.0000000e+00
492, 5.0000000e-01, 1.3750000e-01, 0.0000000e+00
493, 0.0000000e+00, 1.5000000e-01, 0.0000000e+00
494, 1.2500000e-02, 1.5000000e-01, 0.0000000e+00
495, 2.5000000e-02, 1.5000000e-01, 0.0000000e+00
496, 3.7500000e-02, 1.5000000e-01, 0.0000000e+00
497, 5.0000000e-02, 1.5000000e-01, 0.0000000e+00
498, 6.2500000e-02, 1.5000000e-01, 0.0000000e+00
499, 7.5000000e-02, 1.5000000e-01, 0.0000000e+00
500, 8.7500000e-02, 1.5000000e-01, 0.0000000e+00
501, 1.0000000e-01, 1.5000000e-01, 0.0000000e+00
502, 1.1250000e-01, 1.5000000e-01, 0.0000000e+00
503, 1.2500000e-01, 1.5000000e-01, 0.0000000e+00
504, 1.3750000e-01, 1.5000000e-01, 0.0000000e+00
505, 1.5000000e-01, 1.5000000e-01, 0.0000000e+00
506, 1.6250000e-01, 1.5000000e-01, 0.0000000e+00
507, 1.7500000e-01, 1.5000000e-01, 0.0000000e+00
508, 1.8750000e-01, 1.5000000e-01, 0.0000000e+00
509, 2.0000000e-01, 1.5000000e-01, 0.0000000e+00
510, 2.1250000e-01, 1.5000000e-01, 0.0000000e+00
511, 2.2500000e-01, 1.5000000e-01, 0.0000000e+00
512, 2.3750000e-01, 1.5000000e-01, 0.0000000e+00
513, 2.5000000e-01, 1.5000000e-01, 0.0000000e+00
514, 2.6250000e-01, 1.5000000e-01, 0.0000000e+00
515, 2.7500000e-01, 1.5000000e-01, 0.0000000e+00
516, 2.8750000e-01, 1.5000000e-01, 0.0000000e+00
517, 3.0000000e-01, 1.5000000e-01, 0.0000000e+00
518, 3.1250000e-01, 1.5000000e-01, 0.0000000e+00
519, 3.2500000e-01, 1.5000000e-01, 0.0000000e+00
520, 3.3750000e-01, 1.5000000e-01, 0.0000000e+00
521, 3.5000000e-01, 1.5000000e-01, 0.0000000e+00
522, 3.6250000e-01, 1.5000000e-01, 0.0000000e+00
523, 3.7500000e-01, 1.5000000e-01, 0.0000000e+00
524, 3.8750000e-01, 1.5000000e-01, 0.0000000e+00
525, 4.0000000e-01, 1.5000000e-01, 0.0000000e+00
526, 4.1250000e-01, 1.5000000e-01, 0.0000000e+00
527, 4.2500000e-01, 1.5000000e-01, 0.0000000e+00
528, 4.3750000e-01, 1.5000000e-01, 0.0000000e+00
529, 4.5000000e-01, 1.5000000e-01, 0.0000000e+00
530, 4.6250000e-01, 1.5000000e-01, 0.0000000e+00
531, 4.7500000e-01, 1.5000000e-01, 0.0000000e+00
532, 4.8750000e-01, 1.5000000e-01, 0.0000000e+00
533, 5.0000000e-01, 1.5000000e-01, 0.0000000e+00
534, 0.0000000e+00, 1.6250000e-01, 0.0000000e+00
535, 1.2500000e-02, 1.6250000e-01, 0.0000000e+00
536, 2.5000000e-02, 1.6250000e-01, 0.0000000e+00
537, 3.7500000e-02, 1.6250000e-01, 0.0000000e+00
538, 5.0000000e-02, 1.6250000e-01, 0.0000000e+00
539, 6.2500000e-02, 1.6250000e-01, 0.0000000e+00
540, 7.5000000e-02, 1.6250000e-01, 0.0000000e+00
541, 8.7500000e-02, 1.6250000e-01, 0.0000000e+00
542, 1.0000000e-01, 1.6250000e-01, 0.0000000e+00
543, 1.1250000e-01, 1.6250000e-01, 0.0000000e+00
544, 1.2500000e-01, 1.6250000e-01, 0.0000000e+00
545, 1.3750000e-01, 1.6250000e-01, 0.0000000e+00
546, 1.5000000e-01, 1.6250000e-01, 0.0000000e+00
547, 1.6250000e-01, 1.6250000e-01, 0.0000000e+00
548, 1.7500000e-01, 1.6250000e-01, 0.0000000e+00
549, 1.8750000e-01, 1.6250000e-01, 0.0000000e+00
550, 2.0000000e-01, 1.6250000e-01, 0.0000000e+00
551, 2.1250000e-01, 1.6250000e-01, 0.0000000e+00
552, 2.2500000e-01, 1.6250000e-01, 0.0000000e+00
553, 2.3750000e-01, 1.6250000e-01, 0.0000000e+00
554, 2.5000000e-01, 1.6250000e-01, 0.0000000e+00
555, 2.6250000e-01, 1.6250000e-01, 0.0000000e+00
556, 2.7500000e-01, 1.6250000e-01, 0.0000000e+00
557, 2.8750000e-01, 1.6250000e-01, 0.0000000e+00
558, 3.0000000e-01, 1.6250000e-01, 0.0000000e+00
559, 3.1250000e-01, 1.6250000e-01, 0.0000000e+00
560, 3.2500000e-01, 1.6250000e-01, 0.0000000e+00
561, 3.3750000e-01, 1.6250000e-01, 0.0000000e+00
562, 3.5000000e-01, 1.6250000e-01, 0.0000000e+00
563, 3.6250000e-01, 1.6250000e-01, 0.0000000e+00
564, 3.7500000e-01, 1.6250000e-01, 0.0000000e+00
565, 3.8750000e-01, 1.6250000e-01, 0.0000000e+00
566, 4.0000000e-01, 1.6250000e-01, 0.0000000e+00
567, 4.1250000e-01, 1.6250000e-01, 0.0000000e+00
568, 4.2500000e-01, 1.6250000e-01, 0.0000000e+00
569, 4.3750000e-01, 1.6250000e-01, 0.0000000e+00
570, 4.5000000e-01, 1.6250000e-01, 0.0000000e+00
571, 4.6250000e-01, 1.6250000e-01, 0.0000000e+00
572, 4.7500000e-01, 1.6250000e-01, 0.0000000e+00
573, 4.8750000e-01, 1.6250000e-01, 0.0000000e+00
574, 5.0000000e-01, 1.6250000e-01, 0.0000000e+00
575, 0.0000000e+00, 1.7500000e-01, 0.0000000e+00
576, 1.2500000e-02, 1.7500000e-01, 0.0000000e+00
577, 2.5000000e-02, 1.7500000e-01, 0.0000000e+00
578, 3.7500000e-02, 1.7500000e-01, 0.0000000e+00
579, 5.0000000e-02, 1.7500000e-01, 0.0000000e+00
580, 6.2500000e-02, 1.7500000e-01, 0.0000000e+00
581, 7.5000000e-02, 1.7500000e-01, 0.0000000e+00
582, 8.7500000e-02, 1.7500000e-01, 0.0000000e+00
583, 1.0000000e-01, 1.7500000e-01, 0.0000000e+00
584, 1.1250000e-01, 1.7500000e-01, 0.0000000e+00
585, 1.2500000e-01, 1.7500000e-01, 0.0000000e+00
586, 1.3750000e-01, 1.7500000e-01, 0.0000000e+00
587, 1.5000000e-01, 1.7500000e-01, 0.0000000e+00
588, 1.6250000e-01, 1.7500000e-01, 0.0000000e+00
589, 1.7500000e-01, 1.7500000e-01, 0.0000000e+00
590, 1.8750000e-01, 1.7500000e-01, 0.0000000e+00
591, 2.0000000e-01, 1.7500000e-01, 0.0000000e+00
592, 2.1250000e-01, 1.7500000e-01, 0.0000000e+00
593, 2.2500000e-01, 1.7500000e-01, 0.0000000e+00
594, 2.3750000e-01, 1.7500000e-01, 0.0000000e+00
595, 2.5000000e-01, 1.7500000e-01, 0.0000000e+00
596, 2.6250000e-01, 1.7500000e-01, 0.0000000e+00
597, 2.7500000e-01, 1.7500000e-01, 0.0000000e+00
598, 2.8750000e-01, 1.7500000e-01, 0.0000000e+00
599, 3.0000000e-01, 1.7500000e-01, 0.0000000e+00
600, 3.1250000e-01, 1.7500000e-01, 0.0000000e+00
601, 3.2500000e-01, 1.7500000e-01, 0.0000000e+00
602, 3.3750000e-01, 1.7500000e-01, 0.0000000e+00
603, 3.5000000e-01, 1.7500000e-01, 0.0000000e+00
604, 3.6250000e-01, 1.7500000e-01, 0.0000000e+00
605, 3.7500000e-01, 1.7500000e-01, 0.0000000e+00
606, 3.8750000e-01, 1.7500000e-01, 0.0000000e+00
607, 4.0000000e-01, 1.7500000e-01, 0.0000000e+00
608, 4.1250000e-01, 1.7500000e-01, 0.0000000e+00
609, 4.2500000e-01, 1.7500000e-01, 0.0000000e+00
610, 4.3750000e-01, 1.7500000e-01, 0.0000000e+00
611, 4.5000000e-01, 1.7500000e-01, 0.0000000e+00
612, 4.6250000e-01, 1.7500000e-01, 0.0000000e+00
613, 4.7500000e-01, 1.7500000e-01, 0.0000000e+00
614, 4.8750000e-01, 1.7500000e-01, 0.0000000e+00
615, 5.0000000e-01, 1.7500000e-01, 0.0000000e+00
616, 0.0000000e+00, 1.8750000e-01, 0.0000000e+00
617, 1.2500000e-02, 1.8750000e-01, 0.0000000e+00
618, 2.5000000e-02, 1.8750000e-01, 0.0000000e+00
619, 3.7500000e-02, 1.8750000e-01, 0.0000000e+00
620, 5.0000000e-02, 1.8750000e-01, 0.0000000e+00
621, 6.2500000e-02, 1.8750000e-01, 0.0000000e+00
622, 7.5000000e-02, 1.8750000e-01, 0.0000000e+00
623, 8.7500000e-02, 1.8750000e-01, 0.0000000e+00
624, 1.0000000e-01, 1.8750000e-01, 0.0000000e+00
625, 1.1250000e-01, 1.8750000e-01, 0.0000000e+00
626, 1.2500000e-01, 1.8750000e-01, 0.0000000e+00
627, 1.3750000e-01, 1.8750000e-01, 0.0000000e+00
628, 1.5000000e-01, 1.8750000e-01, 0.0000000e+00
629, 1.6250000e-01, 1.8750000e-01, 0.0000000e+00
630, 1.7500000e-01, 1.8750000e-01, 0.0000000e+00
631, 1.8750000e-01, 1.8750000e-01, 0.0000000e+00
632, 2.0000000e-01, 1.8750000e-01, 0.0000000e+00
633, 2.1250000e-01, 1.8750000e-01, 0.0000000e+00
634, 2.2500000e-01, 1.8750000e-01, 0.0000000e+00
635, 2.3750000e-01, 1.8750000e-01, 0.0000000e+00
636, 2.5000000e-01, 1.8750000e-01, 0.0000000e+00
637, 2.6250000e-01, 1.8750000e-01, 0.0000000e+00
638, 2.7500000e-01, 1.8750000e-01, 0.0000000e+00
639, 2.8750000e-01, 1.8750000e-01, 0.0000000e+00
640, 3.0000000e-01, 1.8750000e-01, 0.0000000e+00
641, 3.1250000e-01, 1.8750000e-01, 0.0000000e+00
642, 3.2500000e-01, 1.8750000e-01, 0.0000000e+00
643, 3.3750000e-01, 1.8750000e-01, 0.0000000e+00
644, 3.5000000e-01, 1.8750000e-01, 0.0000000e+00
645, 3.6250000e-01, 1.8750000e-01, 0.0000000e+00
646, 3.7500000e-01, 1.8750000e-01, 0.0000000e+00
647, 3.8750000e-01, 1.8750000e-01, 0.0000000e+00
648, 4.0000000e-01, 1.8750000e-01, 0.0000000e+00
649, 4.1250000e-01, 1.8750000e-01, 0.0000000e+00
650, 4.2500000e-01, 1.8750000e-01, 0.0000000e+00
651, 4.3750000e-01, 1.8750000e-01, 0.0000000e+00
652, 4.5000000e-01, 1.8750000e-01, 0.0000000e+00
653, 4.6250000e-01, 1.8750000e-01, 0.0000000e+00
654, 4.7500000e-01, 1.8750000e-01, 0.0000000e+00
655, 4.8750000e-01, 1.8750000e-01, 0.0000000e+00
656, 5.0000000e-01, 1.8750000e-01, 0.0000000e+00
657, 0.0000000e+00, 2.0000000e-01, 0.0000000e+00
658, 1.2500000e-02, 2.0000000e-01, 0.0000000e+00
659, 2.5000000e-02, 2.0000000e-01, 0.0000000e+00
660, 3.7500000e-02, 2.0000000e-01, 0.0000000e+00
661, 5.0000000e-02, 2.0000000e-01, 0.0000000e+00
662, 6.2500000e-02, 2.0000000e-01, 0.0000000e+00
663, 7.5000000e-02, 2.0000000e-01, 0.0000000e+00
664, 8.7500000e-02, 2.0000000e-01, 0.0000000e+00
665, 1.0000000e-01, 2.0000000e-01, 0.0000000e+00
666, 1.1250000e-01, 2.0000000e-01, 0.0000000e+00
667, 1.2500000e-01, 2.0000000e-01, 0.0000000e+00
668, 1.3750000e-01, 2.0000000e-01, 0.0000000e+00
669, 1.5000000e-01, 2.0000000e-01, 0.0000000e+00
670, 1.6250000e-01, 2.0000000e-01, 0.0000000e+00
671, 1.7500000e-01, 2.0000000e-01, 0.0000000e+00
672, 1.8750000e-01, 2.0000000e-01, 0.0000000e+00
673, 2.0000000e-01, 2.0000000e-01, 0.0000000e+00
674, 2.1250000e-01, 2.0000000e-01, 0.0000000e+00
675, 2.2500000e-01, 2.0000000e-01, 0.0000000e+00
676, 2.3750000e-01, 2.0000000e-01, 0.0000000e+00
677, 2.5000000e-01, 2.0000000e-01, 0.0000000e+00
678, 2.6250000e-01, 2.0000000e-01, 0.0000000e+00
679, 2.7500000e-01, 2.0000000e-01, 0.0000000e+00
680, 2.8750000e-01, 2.0000000e-01, 0.0000000e+00
681, 3.0000000e-01, 2.0000000e-01, 0.0000000e+00
682, 3.1250000e-01, 2.0000000e-01, 0.0000000e+00
683, 3.2500000e-01, 2.0000000e-01, 0.0000000e+00
684, 3.3750000e-01, 2.0000000e-01, 0.0000000e+00
685, 3.5000000e-01, 2.0000000e-01, 0.0000000e+00
686, 3.6250000e-01, 2.0000000e-01, 0.0000000e+00
687, 3.7500000e-01, 2.0000000e-01, 0.0000000e+00
688, 3.8750000e-01, 2.0000000e-01, 0.0000000e+00
689, 4.0000000e-01, 2.0000000e-01, 0.0000000e+00
690, 4.1250000e-01, 2.0000000e-01, 0.0000000e+00
691, 4.2500000e-01, 2.0000000e-01, 0.0000000e+00
692, 4.3750000e-01, 2.0000000e-01, 0.0000000e+00
693, 4.5000000e-01, 2.0000000e-01, 0.0000000e+00
694, 4.6250000e-01, 2.0000000e-01, 0.0000000e+00
695, 4.7500000e-01, 2.0000000e-01, 0.0000000e+00
696, 4.8750000e-01, 2.0000000e-01, 0.0000000e+00
697, 5.0000000e-01, 2.0000000e-01, 0.0000000e+00
698, 0.0000000e+00, 2.1250000e-01, 0.0000000e+00
699, 1.2500000e-02, 2.1250000e-01, 0.0000000e+00
700, 2.5000000e-02, 2.1250000e-01, 0.0000000e+00
701, 3.7500000e-02, 2.1250000e-01, 0.0000000e+00
702, 5.0000000e-02, 2.1250000e-01, 0.0000000e+00
703, 6.2500000e-02, 2.1250000e-01, 0.0000000e+00
704, 7.5000000e-02, 2.1250000e-01, 0.0000000e+00
705, 8.7500000e-02, 2.1250000e-01, 0.0000000e+00
706, 1.0000000e-01, 2.1250000e-01, 0.0000000e+00
707, 1.1250000e-01, 2.1250000e-01, 0.0000000e+00
708, 1.2500000e-01, 2.1250000e-01, 0.0000000e+00
709, 1.3750000e-01, 2.1250000e-01, 0.0000000e+00
710, 1.5000000e-01, 2.1250000e-01, 0.0000000e+00
711, 1.6250000e-01, 2.1250000e-01, 0.0000000e+00
712, 1.7500000e-01, 2.1250000e-01, 0.0000000e+00
713, 1.8750000e-01, 2.1250000e-01, 0.0000000e+00
714, 2.0000000e-01, 2.1250000e-01, 0.0000000e+00
715, 2.1250000e-01, 2.1250000e-01, 0.0000000e+00
716, 2.2500000e-01, 2.1250000e-01, 0.0000000e+00
717, 2.3750000e-01, 2.1250000e-01, 0.0000000e+00
718, 2.5000000e-01, 2.1250000e-01, 0.0000000e+00
719, 2.6250000e-01, 2.1250000e-01, 0.0000000e+00
720, 2.7500000e-01, 2.1250000e-01, 0.0000000e+00
721, 2.8750000e-01, 2.1250000e-01, 0.0000000e+00
722, 3.0000000e-01, 2.1250000e-01, 0.0000000e+00
723, 3.1250000e-01, 2.1250000e-01, 0.0000000e+00
724, 3.2500000e-01, 2.1250000e-01, 0.0000000e+00
725, 3.3750000e-01, 2.1250000e-01, 0.0000000e+00
726, 3.5000000e-01, 2.1250000e-01, 0.0000000e+00
727, 3.6250000e-01, 2.1250000e-01, 0.0000000e+00
728, 3.7500000e-01, 2.1250000e-01, 0.0000000e+00
729, 3.8750000e-01, 2.1250000e-01, 0.0000000e+00
730, 4.0000000e-01, 2.1250000e-01, 0.0000000e+00
731, 4.1250000e-01, 2.1250000e-01, 0.0000000e+00
732, 4.2500000e-01, 2.1250000e-01, 0.0000000e+00
733, 4.3750000e-01, 2.1250000e-01, 0.0000000e+00
734, 4.5000000e-01, 2.1250000e-01, 0.0000000e+00
735, 4.6250000e-01, 2.1250000e-01, 0.0000000e+00
736, 4.7500000e-01, 2.1250000e-01, 0.0000000e+00
737, 4.8750000e-01, 2.1250000e-01, 0.0000000e+00
738, 5.0000000e-01, 2.1250000e-01, 0.0000000e+00
739, 0.0000000e+00, 2.2500000e-01, 0.0000000e+00
740, 1.2500000e-02, 2.2500000e-01, 0.0000000e+00
741, 2.5000000e-02, 2.2500000e-01, 0.0000000e+00
742, 3.7500000e-02, 2.2500000e-01, 0.0000000e+00
743, 5.0000000e-02, 2.2500000e-01, 0.0000000e+00
744, 6.2500000e-02, 2.2500000e-01, 0.0000000e+00
745, 7.5000000e-02, 2.2500000e-01, 0.0000000e+00
746, 8.7500000e-02, 2.2500000e-01, 0.0000000e+00
747, 1.0000000e-01, 2.2500000e-01, 0.0000000e+00
748, 1.1250000e-01, 2.2500000e-01, 0.0000000e+00
749, 1.2500000e-01, 2.2500000e-01, 0.0000000e+00
750, 1.3750000e-01, 2.2500000e-01, 0.0000000e+00
751, 1.5000000e-01, 2.2500000e-01, 0.0000000e+00
752, 1.6250000e-01, 2.2500000e-01, 0.0000000e+00
753, 1.7500000e-01, 2.2500000e-01, 0.0000000e+00
754, 1.8750000e-01, 2.2500000e-01, 0.0000000e+00
755, 2.0000000e-01, 2.2500000e-01, 0.0000000e+00
756, 2.1250000e-01, 2.2500000e-01, 0.0000000e+00
757, 2.2500000e-01, 2.2500000e-01, 0.0000000e+00
758, 2.3750000e-01, 2.2500000e-01, 0.0000000e+00
759, 2.5000000e-01, 2.2500000e-01, 0.0000000e+00
760, 2.6250000e-01, 2.2500000e-01, 0.0000000e+00
761, 2.7500000e-01, 2.2500000e-01, 0.0000000e+00
762, 2.8750000e-01, 2.2500000e-01, 0.0000000e+00
763, 3.0000000e-01, 2.2500000e-01, 0.0000000e+00
764, 3.1250000e-01, 2.2500000e-01, 0.0000000e+00
765, 3.2500000e-01, 2.2500000e-01, 0.0000000e+00
766, 3.3750000e-01, 2.2500000e-01, 0.0000000e+00
767, 3.5000000e-01, 2.2500000e-01, 0.0000000e+00
768, 3.6250000e-01, 2.2500000e-01, 0.0000000e+00
769, 3.7500000e-01, 2.2500000e-01, 0.0000000e+00
770, 3.8750000e-01, 2.2500000e-01, 0.0000000e+00
771, 4.0000000e-01, 2.2500000e-01, 0.0000000e+00
772, 4.1250000e-01, 2.2500000e-01, 0.0000000e+00
773, 4.2500000e-01, 2.2500000e-01, 0.0000000e+00
774, 4.3750000e-01, 2.2500000e-01, 0.0000000e+00
775, 4.5000000e-01, 2.2500000e-01, 0.0000000e+00
776, 4.6250000e-01, 2.2500000e-01, 0.0000000e+00
777, 4.7500000e-01, 2.2500000e-01, 0.0000000e+00
778, 4.8750000e-01, 2.2500000e-01, 0.0000000e+00
779, 5.0000000e-01, 2.2500000e-01, 0.0000000e+00
780, 0.0000000e+00, 2.3750000e-01, 0.0000000e+00
781, 1.2500000e-02, 2.3750000e-01, 0.0000000e+00
782, 2.5000000e-02, 2.3750000e-01, 0.0000000e+00
783, 3.7500000e-02, 2.3750000e-01, 0.0000000e+00
784, 5.0000000e-02, 2.3750000e-01, 0.0000000e+00
785, 6.2500000e-02, 2.3750000e-01, 0.0000000e+00
786, 7.5000000e-02, 2.3750000e-01, 0.0000000e+00
787, 8.7500000e-02, 2.3750000e-01, 0.0000000e+00
788, 1.0000000e-01, 2.3750000e-01, 0.0000000e+00
789, 1.1250000e-01, 2.3750000e-01, 0.0000000e+00
790, 1.2500000e-01, 2.3750000e-01, 0.0000000e+00
791, 1.3750000e-01, 2.3750000e-01, 0.0000000e+00
792, 1.5000000e-01, 2.3750000e-01, 0.0000000e+00
793, 1.6250000e-01, 2.3750000e-01, 0.0000000e+00
794, 1.7500000e-01, 2.3750000e-01, 0.0000000e+00
795, 1.8750000e-01, 2.3750000e-01, 0.0000000e+00
796, 2.0000000e-01, 2.3750000e-01, 0.0000000e+00
797, 2.1250000e-01, 2.3750000e-01, 0.0000000e+00
798, 2.2500000e-01, 2.3750000e-01, 0.0000000e+00
799, 2.3750000e-01, 2.3750000e-01, 0.0000000e+00
800, 2.5000000e-01, 2.3750000e-01, 0.0000000e+00
801, 2.6250000e-01, 2.3750000e-01, 0.0000000e+00
802, 2.7500000e-01, 2.3750000e-01, 0.0000000e+00
803, 2.8750000e-01, 2.3750000e-01, 0.0000000e+00
804, 3.0000000e-01, 2.3750000e-01, 0.0000000e+00
805, 3.1250000e-01, 2.3750000e-01, 0.0000000e+00
806, 3.2500000e-01, 2.3750000e-01, 0.0000000e+00
807, 3.3750000e-01, 2.3750000e-01, 0.0000000e+00
808, 3.5000000e-01, 2.3750000e-01, 0.0000000e+00
809, 3.6250000e-01, 2.3750000e-01, 0.0000000e+00
810, 3.7500000e-01, 2.3750000e-01, 0.0000000e+00
811, 3.8750000e-01, 2.3750000e-01, 0.0000000e+00
812, 4.0000000e-01, 2.3750000e-01, 0.0000000e+00
813, 4.1250000e-01, 2.3750000e-01, 0.0000000e+00
814, 4.2500000e-01, 2.3750000e-01, 0.0000000e+00
815, 4.3750000e-01, 2.3750000e-01, 0.0000000e+00
816, 4.5000000e-01, 2.3750000e-01, 0.0000000e+00
817, 4.6250000e-01, 2.3750000e-01, 0.0000000e+00
818, 4.7500000e-01, 2.3750000e-01, 0.0000000e+00
819, 4.8750000e-01, 2.3750000e-01, 0.0000000e+00
820, 5.0000000e-01, 2.3750000e-01, 0.0000000e+00
821, 0.0000000e+00, 2.5000000e-01, 0.0000000e+00
822, 1.2500000e-02, 2.5000000e-01, 0.0000000e+00
823, 2.5000000e-02, 2.5000000e-01, 0.0000000e+00
824, 3.7500000e-02, 2.5000000e-01, 0.0000000e+00
825, 5.0000000e-02, 2.5000000e-01, 0.0000000e+00
826, 6.2500000e-02, 2.5000000e-01, 0.0000000e+00
827, 7.5000000e-02, 2.5000000e-01, 0.0000000e+00
828, 8.7500000e-02, 2.5000000e-01, 0.0000000e+00
829, 1.0000000e-01, 2.5000000e-01, 0.0000000e+00
830, 1.1250000e-01, 2.5000000e-01, 0.0000000e+00
831, 1.2500000e-01, 2.5000000e-01, 0.0000000e+00
832, 1.3750000e-01, 2.5000000e-01, 0.0000000e+00
833, 1.5000000e-01, 2.5000000e-01, 0.0000000e+00
834, 1.6250000e-01, 2.5000000e-01, 0.0000000e+00
835, 1.7500000e-01, 2.5000000e-01, 0.0000000e+00
836, 1.8750000e-01, 2.5000000e-01, 0.0000000e+00
837, 2.0000000e-01, 2.5000000e-01, 0.0000000e+00
838, 2.1250000e-01, 2.5000000e-01, 0.0000000e+00
839, 2.2500000e-01, 2.5000000e-01, 0.0000000e+00
840, 2.3750000e-01, 2.5000000e-01, 0.0000000e+00
841, 2.5000000e-01, 2.5000000e-01, 0.0000000e+00
842, 2.6250000e-01, 2.5000000e-01, 0.0000000e+00
843, 2.7500000e-01, 2.5000000e-01, 0.0000000e+00
844, 2.8750000e-01, 2.5000000e-01, 0.0000000e+00
845, 3.0000000e-01, 2.5000000e-01, 0.0000000e+00
846, 3.1250000e-01, 2.5000000e-01, 0.0000000e+00
847, 3.2500000e-01, 2.5000000e-01, 0.0000000e+00
848, 3.3750000e-01, 2.5000000e-01, 0.0000000e+00
849, 3.5000000e-01, 2.5000000e-01, 0.0000000e+00
850, 3.6250000e-01, 2.5000000e-01, 0.0000000e+00
851, 3.7500000e-01, 2.5000000e-01, 0.0000000e+00
852, 3.8750000e-01, 2.5000000e-01, 0.0000000e+00
853, 4.0000000e-01, 2.5000000e-01, 0.0000000e+00
854, 4.1250000e-01, 2.5000000e-01, 0.0000000e+00
855, 4.2500000e-01, 2.5000000e-01, 0.0000000e+00
856, 4.3750000e-01, 2.5000000e-01, 0.0000000e+00
857, 4.5000000e-01, 2.5000000e-01, 0.0000000e+00
858, 4.6250000e-01, 2.5000000e-01, 0.0000000e+00
859, 4.7500000e-01, 2.5000000e-01, 0.0000000e+00
860, 4.8750000e-01, 2.5000000e-01, 0.0000000e+00
861, 5.0000000e-01, 2.5000000e-01, 0.0000000e+00
862, 0.0000000e+00, 2.6250000e-01, 0.0000000e+00
863, 1.2500000e-02, 2.6250000e-01, 0.0000000e+00
864, 2.5000000e-02, 2.6250000e-01, 0.0000000e+00
865, 3.7500000e-02, 2.6250000e-01, 0.0000000e+00
866, 5.0000000e-02, 2.6250000e-01, 0.0000000e+00
867, 6.2500000e-02, 2.6250000e-01, 0.0000000e+00
868, 7.5000000e-02, 2.6250000e-01, 0.0000000e+00
869, 8.7500000e-02, 2.6250000e-01, 0.0000000e+00
870, 1.0000000e-01, 2.6250000e-01, 0.0000000e+00
871, 1.1250000e-01, 2.6250000e-01, 0.0000000e+00
872, 1.2500000e-01, 2.6250000e-01, 0.0000000e+00
873, 1.3750000e-01, 2.6250000e-01, 0.0000000e+00
874, 1.5000000e-01, 2.6250000e-01, 0.0000000e+00
875, 1.6250000e-01, 2.6250000e-01, 0.0000000e+00
876, 1.7500000e-01, 2.6250000e-01, 0.0000000e+00
877, 1.8750000e-01, 2.6250000e-01, 0.0000000e+00
878, 2.0000000e-01, 2.6250000e-01, 0.0000000e+00
879, 2.1250000e-01, 2.6250000e-01, 0.0000000e+00
880, 2.2500000e-01, 2.6250000e-01, 0.0000000e+00
881, 2.3750000e-01, 2.6250000e-01, 0.0000000e+00
882, 2.5000000e-01, 2.6250000e-01, 0.0000000e+00
883, 2.6250000e-01, 2.6250000e-01, 0.0000000e+00
884, 2.7500000e-01, 2.6250000e-01, 0.0000000e+00
885, 2.8750000e-01, 2.6250000e-01, 0.0000000e+00
886, 3.0000000e-01, 2.6250000e-01, 0.0000000e+00
887, 3.1250000e-01, 2.6250000e-01, 0.0000000e+00
888, 3.2500000e-01, 2.6250000e-01, 0.0000000e+00
889, 3.3750000e-01, 2.6250000e-01, 0.0000000e+00
890, 3.5000000e-01, 2.6250000e-01, 0.0000000e+00
891, 3.6250000e-01, 2.6250000e-01, 0.0000000e+00
892, 3.7500000e-01, 2.6250000e-01, 0.0000000e+00
893, 3.8750000e-01, 2.6250000e-01, 0.0000000e+00
894, 4.0000000e-01, 2.6250000e-01, 0.0000000e+00
895, 4.1250000e-01, 2.6250000e-01, 0.0000000e+00
896, 4.2500000e-01, 2.6250000e-01, 0.0000000e+00
897, 4.3750000e-01, 2.6250000e-01, 0.0000000e+00
898, 4.5000000e-01, 2.6250000e-01, 0.0000000e+00
899, 4.6250000e-01, 2.6250000e-01, 0.0000000e+00
900, 4.7500000e-01, 2.6250000e-01, 0.0000000e+00
901, 4.8750000e-01, 2.6250000e-01, 0.0000000e+00
902, 5.0000000e-01, 2.6250000e-01, 0.0000000e+00
903, 0.0000000e+00, 2.7500000e-01, 0.0000000e+00
904, 1.2500000e-02, 2.7500000e-01, 0.0000000e+00
905, 2.5000000e-02, 2.7500000e-01, 0.0000000e+00
906, 3.7500000e-02, 2.7500000e-01, 0.0000000e+00
907, 5.0000000e-02, 2.7500000e-01, 0.0000000e+00
908, 6.2500000e-02, 2.7500000e-01, 0.0000000e+00
909, 7.5000000e-02, 2.7500000e-01, 0.0000000e+00
910, 8.7500000e-02, 2.7500000e-01, 0.0000000e+00
911, 1.0000000e-01, 2.7500000e-01, 0.0000000e+00
912, 1.1250000e-01, 2.7500000e-01, 0.0000000e+00
913, 1.2500000e-01, 2.7500000e-01, 0.0000000e+00
914, 1.3750000e-01, 2.7500000e-01, 0.0000000e+00
915, 1.5000000e-01, 2.7500000e-01, 0.0000000e+00
916, 1.6250000e-01, 2.7500000e-01, 0.0000000e+00
917, 1.7500000e-01, 2.7500000e-01, 0.0000000e+00
918, 1.8750000e-01, 2.7500000e-01, 0.0000000e+00
919, 2.0000000e-01, 2.7500000e-01, 0.0000000e+00
920, 2.1250000e-01, 2.7500000e-01, 0.0000000e+00
921, 2.2500000e-01, 2.7500000e-01, 0.0000000e+00
922, 2.3750000e-01, 2.7500000e-01, 0.0000000e+00
923, 2.5000000e-01, 2.7500000e-01, 0.0000000e+00
924, 2.6250000e-01, 2.7500000e-01, 0.0000000e+00
925, 2.7500000e-01, 2.7500000e-01, 0.0000000e+00
926, 2.8750000e-01, 2.7500000e-01, 0.0000000e+00
927, 3.0000000e-01, 2.7500000e-01, 0.0000000e+00
928, 3.1250000e-01, 2.7500000e-01, 0.0000000e+00
929, 3.2500000e-01, 2.7500000e-01, 0.0000000e+00
930, 3.3750000e-01, 2.7500000e-01, 0.0000000e+00
931, 3.5000000e-01, 2.7500000e-01, 0.0000000e+00
932, 3.6250000e-01, 2.7500000e-01, 0.0000000e+00
933, 3.7500000e-01, 2.7500000e-01, 0.0000000e+00
934, 3.8750000e-01, 2.7500000e-01, 0.0000000e+00
935, 4.0000000e-01, 2.7500000e-01, 0.0000000e+00
936, 4.1250000e-01, 2.7500000e-01, 0.0000000e+00
937, 4.2500000e-01, 2.7500000e-01, 0.0000000e+00
938, 4.3750000e-01, 2.7500000e-01, 0.0000000e+00
939, 4.5000000e-01, 2.7500000e-01, 0.0000000e+00
940, 4.6250000e-01, 2.7500000e-01, 0.0000000e+00
941, 4.7500000e-01, 2.7500000e-01, 0.0000000e+00
942, 4.8750000e-01, 2.7500000e-01, 0.0000000e+00
943, 5.0000000e-01, 2.7500000e-01, 0.0000000e+00
944, 0.0000000e+00, 2.8750000e-01, 0.0000000e+00
945, 1.2500000e-02, 2.8750000e-01, 0.0000000e+00
946, 2.5000000e-02, 2.8750000e-01, 0.0000000e+00
947, 3.7500000e-02, 2.8750000e-01, 0.0000000e+00
948, 5.0000000e-02, 2.8750000e-01, 0.0000000e+00
949, 6.2500000e-02, 2.8750000e-01, 0.0000000e+00
950, 7.5000000e-02, 2.8750000e-01, 0.0000000e+00
951, 8.7500000e-02, 2.8750000e-01, 0.0000000e+00
952, 1.0000000e-01, 2.8750000e-01, 0.0000000e+00
953, 1.1250000e-01, 2.8750000e-01, 0.0000000e+00
954, 1.2500000e-01, 2.8750000e-01, 0.0000000e+00
955, 1.3750000e-01, 2.8750000e-01, 0.0000000e+00
956, 1.5000000e-01, 2.8750000e-01, 0.0000000e+00
957, 1.6250000e-01, 2.8750000e-01, 0.0000000e+00
958, 1.7500000e-01, 2.8750000e-01, 0.0000000e+00
959, 1.8750000e-01, 2.8750000e-01, 0.0000000e+00
960, 2.0000000e-01, 2.8750000e-01, 0.0000000e+00
961, 2.1250000e-01, 2.8750000e-01, 0.0000000e+00
962, 2.2500000e-01, 2.8750000e-01, 0.0000000e+00
963, 2.3750000e-01, 2.8750000e-01, 0.0000000e+00
964, 2.5000000e-01, 2.8750000e-01, 0.0000000e+00
965, 2.6250000e-01, 2.8750000e-01, 0.0000000e+00
966, 2.7500000e-01, 2.8750000e-01, 0.0000000e+00
967, 2.8750000e-01, 2.8750000e-01, 0.0000000e+00
968, 3.0000000e-01, 2.8750000e-01, 0.0000000e+00
969, 3.1250000e-01, 2.8750000e-01, 0.0000000e+00
970, 3.2500000e-01, 2.8750000e-01, 0.0000000e+00
971, 3.3750000e-01, 2.8750000e-01, 0.0000000e+00
972, 3.5000000e-01, 2.8750000e-01, 0.0000000e+00
973, 3.6250000e-01, 2.8750000e-01, 0.0000000e+00
974, 3.7500000e-01, 2.8750000e-01, 0.0000000e+00
975, 3.8750000e-01, 2.8750000e-01, 0.0000000e+00
976, 4.0000000e-01, 2.8750000e-01, 0.0000000e+00
977, 4.1250000e-01, 2.8750000e-01, 0.0000000e+00
978, 4.2500000e-01, 2.8750000e-01, 0.0000000e+00
979, 4.3750000e-01, 2.8750000e-01, 0.0000000e+00
980, 4.5000000e-01, 2.8750000e-01, 0.0000000e+00
981, 4.6250000e-01, 2.8750000e-01, 0.0000000e+00
982, 4.7500000e-01, 2.8750000e-01, 0.0000000e+00
983, 4.8750000e-01, 2.8750000e-01, 0.0000000e+00
984, 5.0000000e-01, 2.8750000e-01, 0.0000000e+00
985, 0.0000000e+00, 3.0000000e-01, 0.0000000e+00
986, 1.2500000e-02, 3.0000000e-01, 0.0000000e+00
987, 2.5000000e-02, 3.0000000e-01, 0.0000000e+00
988, 3.7500000e-02, 3.0000000e-01, 0.0000000e+00
989, 5.0000000e-02, 3.0000000e-01, 0.0000000e+00
990, 6.2500000e-02, 3.0000000e-01, 0.0000000e+00
991, 7.5000000e-02, 3.0000000e-01, 0.0000000e+00
992, 8.7500000e-02, 3.0000000e-01, 0.0000000e+00
993, 1.0000000e-01, 3.0000000e-01, 0.0000000e+00
994, 1.1250000e-01, 3.0000000e-01, 0.0000000e+00
995, 1.2500000e-01, 3.0000000e-01, 0.0000000e+00
996, 1.3750000e-01, 3.0000000e-01, 0.0000000e+00
997, 1.5000000e-01, 3.0000000e-01, 0.0000000e+00
998, 1.6250000e-01, 3.0000000e-01, 0.0000000e+00
999, 1.7500000e-01, 3.0000000e-01, 0.0000000e+00
1000, 1.8750000e-01, 3.0000000e-01, 0.0000000e+00
1001, 2.0000000e-01, 3.0000000e-01, 0.0000000e+00
1002, 2.1250000e-01, 3.0000000e-01, 0.0000000e+00
1003, 2.2500000e-01, 3.0000000e-01, 0.0000000e+00
1004, 2.3750000e-01, 3.0000000e-01, 0.0000000e+00
1005, 2.5000000e-01, 3.0000000e-01, 0.0000000e+00
1006, 2.6250000e-01, 3.0000000e-01, 0.0000000e+00
1007, 2.7500000e-01, 3.0000000e-01, 0.0000000e+00
1008, 2.8750000e-01, 3.0000000e-01, 0.0000000e+00
1009, 3.0000000e-01, 3.0000000e-01, 0.0000000e+00
1010, 3.1250000e-01, 3.0000000e-01, 0.0000000e+00
1011, 3.2500000e-01, 3.0000000e-01, 0.0000000e+00
1012, 3.3750000e-01, 3.0000000e-01, 0.0000000e+00
1013, 3.5000000e-01, 3.0000000e-01, 0.0000000e+00
1014, 3.6250000e-01, 3.0000000e-01, 0.0000000e+00
1015, 3.7500000e-01, 3.0000000e-01, 0.0000000e+00
1016, 3.8750000e-01, 3.0000000e-01, 0.0000000e+00
1017, 4.0000000e-01, 3.0000000e-01, 0.0000000e+00
1018, 4.1250000e-01, 3.0000000e-01, 0.0000000e+00
1019, 4.2500000e-01, 3.0000000e-01, 0.0000000e+00
1020, 4.3750000e-01, 3.0000000e-01, 0.0000000e+00
1021, 4.5000000e-01, 3.0000000e-01, 0.0000000e+00
1022, 4.6250000e-01, 3.0000000e-01, 0.0000000e+00
1023, 4.7500000e-01, 3.0000000e-01, 0.0000000e+00
1024, 4.8750000e-01, 3.0000000e-01, 0.0000000e+00
1025, 5.0000000e-01, 3.0000000e-01, 0.0000000e+00
1026, 0.0000000e+00, 3.1250000e-01, 0.0000000e+00
1027, 1.2500000e-02, 3.1250000e-01, 0.0000000e+00
1028, 2.5000000e-02, 3.1250000e-01, 0.0000000e+00
1029, 3.7500000e-02, 3.1250000e-01, 0.0000000e+00
1030, 5.0000000e-02, 3.1250000e-01, 0.0000000e+00
1031, 6.2500000e-02, 3.1250000e-01, 0.0000000e+00
1032, 7.5000000e-02, 3.1250000e-01, 0.0000000e+00
1033, 8.7500000e-02, 3.1250000e-01, 0.0000000e+00
1034, 1.0000000e-01, 3.1250000e-01, 0.0000000e+00
1035, 1.1250000e-01, 3.1250000e-01, 0.0000000e+00
1036, 1.2500000e-01, 3.1250000e-01, 0.0000000e+00
1037, 1.3750000e-01, 3.1250000e-01, 0.0000000e+00
1038, 1.5000000e-01, 3.1250000e-01, 0.0000000e+00
1039, 1.6250000e-01, 3.1250000e-01, 0.0000000e+00
1040, 1.7500000e-01, 3.1250000e-01, 0.0000000e+00
1041, 1.8750000e-01, 3.1250000e-01, 0.0000000e+00
1042, 2.0000000e-01, 3.1250000e-01, 0.0000000e+00
1043, 2.1250000e-01, 3.1250000e-01, 0.0000000e+00
1044, 2.2500000e-01, 3.1250000e-01, 0.0000000e+00
1045, 2.3750000e-01, 3.1250000e-01, 0.0000000e+00
1046, 2.5000000e-01, 3.1250000e-01, 0.0000000e+00
1047, 2.6250000e-01, 3.1250000e-01, 0.0000000e+00
1048, 2.7500000e-01, 3.1250000e-01, 0.0000000e+00
1049, 2.8750000e-01, 3.1250000e-01, 0.0000000e+00
1050, 3.0000000e-01, 3.1250000e-01, 0.0000000e+00
1051, 3.1250000e-01, 3.1250000e-01, 0.0000000e+00
1052, 3.2500000e-01, 3.1250000e-01, 0.0000000e+00
1053, 3.3750000e-01, 3.1250000e-01, 0.0000000e+00
1054, 3.5000000e-01, 3.1250000e-01, 0.0000000e+00
1055, 3.6250000e-01, 3.1250000e-01, 0.0000000e+00
1056, 3.7500000e-01, 3.1250000e-01, 0.0000000e+00
1057, 3.8750000e-01, 3.1250000e-01, 0.0000000e+00
1058, 4.0000000e-01, 3.1250000e-01, 0.0000000e+00
1059, 4.1250000e-01, 3.1250000e-01, 0.0000000e+00
1060, 4.2500000e-01, 3.1250000e-01, 0.0000000e+00
1061, 4.3750000e-01, 3.1250000e-01, 0.0000000e+00
1062, 4.5000000e-01, 3.1250000e-01, 0.0000000e+00
1063, 4.6250000e-01, 3.1250000e-01, 0.0000000e+00
1064, 4.7500000e-01, 3.1250000e-01, 0.0000000e+00
1065, 4.8750000e-01, 3.1250000e-01, 0.0000000e+00
1066, 5.0000000e-01, 3.1250000e-01, 0.0000000e+00
1067, 0.0000000e+00, 3.2500000e-01, 0.0000000e+00
1068, 1.2500000e-02, 3.2500000e-01, 0.0000000e+00
1069, 2.5000000e-02, 3.2500000e-01, 0.0000000e+00
1070, 3.7500000e-02, 3.2500000e-01, 0.0000000e+00
1071, 5.0000000e-02, 3.2500000e-01, 0.0000000e+00
1072, 6.2500000e-02, 3.2500000e-01, 0.0000000e+00
1073, 7.5000000e-02, 3.2500000e-01, 0.0000000e+00
1074, 8.7500000e-02, 3.2500000e-01, 0.0000000e+00
1075, 1.0000000e-01, 3.2500000e-01, 0.0000000e+00
1076, 1.1250000e-01, 3.2500000e-01, 0.0000000e+00
1077, 1.2500000e-01, 3.2500000e-01, 0.0000000e+00
1078, 1.3750000e-01, 3.2500000e-01, 0.0000000e+00
1079, 1.5000000e-01, 3.2500000e-01, 0.0000000e+00
1080, 1.6250000e-01, 3.2500000e-01, 0.0000000e+00
1081, 1.7500000e-01, 3.2500000e-01, 0.0000000e+00
1082, 1.8750000e-01, 3.2500000e-01, 0.0000000e+00
1083, 2.0000000e-01, 3.2500000e-01, 0.0000000e+00
1084, 2.1250000e-01, 3.2500000e-01, 0.0000000e+00
1085, 2.2500000e-01, 3.2500000e-01, 0.0000000e+00
1086, 2.3750000e-01, 3.2500000e-01, 0.0000000e+00
1087, 2.5000000e-01, 3.2500000e-01, 0.0000000e+00
1088, 2.6250000e-01, 3.2500000e-01, 0.0000000e+00
1089, 2.7500000e-01, 3.2500000e-01, 0.0000000e+00
1090, 2.8750000e-01, 3.2500000e-01, 0.0000000e+00
1091, 3.0000000e-01, 3.2500000e-01, 0.0000000e+00
1092, 3.1250000e-01, 3.2500000e-01, 0.0000000e+00
1093, 3.2500000e-01, 3.2500000e-01, 0.0000000e+00
1094, 3.3750000e-01, 3.2500000e-01, 0.0000000e+00
1095, 3.5000000e-01, 3.2500000e-01, 0.0000000e+00
1096, 3.6250000e-01, 3.2500000e-01, 0.0000000e+00
1097, 3.7500000e-01, 3.2500000e-01, 0.0000000e+00
1098, 3.8750000e-01, 3.2500000e-01, 0.0000000e+00
1099, 4.0000000e-01, 3.2500000e-01, 0.0000000e+00
1100, 4.1250000e-01, 3.2500000e-01, 0.0000000e+00
1101, 4.2500000e-01, 3.2500000e-01, 0.0000000e+00
1102, 4.3750000e-01, 3.2500000e-01, 0.0000000e+00
1103, 4.5000000e-01, 3.2500000e-01, 0.0000000e+00
1104, 4.6250000e-01, 3.2500000e-01, 0.0000000e+00
1105, 4.7500000e-01, 3.2500000e-01, 0.0000000e+00
1106, 4.8750000e-01, 3.2500000e-01, 0.0000000e+00
1107, 5.0000000e-01, 3.2500000e-01, 0.0000000e+00
1108, 0.0000000e+00, 3.3750000e-01, 0.0000000e+00
1109, 1.2500000e-02, 3.3750000e-01, 0.0000000e+00
1110, 2.5000000e-02, 3.3750000e-01, 0.0000000e+00
1111, 3.7500000e-02, 3.3750000e-01, 0.0000000e+00
1112, 5.0000000e-02, 3.3750000e-01, 0.0000000e+00
1113, 6.2500000e-02, 3.3750000e-01, 0.0000000e+00
1114, 7.5000000e-02, 3.3750000e-01, 0.0000000e+00
1115, 8.7500000e-02, 3.3750000e-01, 0.0000000e+00
1116, 1.0000000e-01, 3.3750000e-01, 0.0000000e+00
1117, 1.1250000e-01, 3.3750000e-01, 0.0000000e+00
1118, 1.2500000e-01, 3.3750000e-01, 0.0000000e+00
1119, 1.3750000e-01, 3.3750000e-01, 0.0000000e+00
1120, 1.5000000e-01, 3.3750000e-01, 0.0000000e+00
1121, 1.6250000e-01, 3.3750000e-01, 0.0000000e+00
1122, 1.7500000e-01, 3.3750000e-01, 0.0000000e+00
1123, 1.8750000e-01, 3.3750000e-01, 0.0000000e+00
1124, 2.0000000e-01, 3.3750000e-01, 0.0000000e+00
1125, 2.1250000e-01, 3.3750000e-01, 0.0000000e+00
1126, 2.2500000e-01, 3.3750000e-01, 0.0000000e+00
1127, 2.3750000e-01, 3.3750000e-01, 0.0000000e+00
1128, 2.5000000e-01, 3.3750000e-01, 0.0000000e+00
1129, 2.6250000e-01, 3.3750000e-01, 0.0000000e+00
1130, 2.7500000e-01, 3.3750000e-01, 0.0000000e+00
1131, 2.8750000e-01, 3.3750000e-01, 0.0000000e+00
1132, 3.0000000e-01, 3.3750000e-01, 0.0000000e+00
1133, 3.1250000e-01, 3.3750000e-01, 0.0000000e+00
1134, 3.2500000e-01, 3.3750000e-01, 0.0000000e+00
1135, 3.3750000e-01, 3.3750000e-01, 0.0000000e+00
1136, 3.5000000e-01, 3.3750000e-01, 0.0000000e+00
1137, 3.6250000e-01, 3.3750000e-01, 0.0000000e+00
1138, 3.7500000e-01, 3.3750000e-01, 0.0000000e+00
1139, 3.8750000e-01, 3.3750000e-01, 0.0000000e+00
1140, 4.0000000e-01, 3.3750000e-01, 0.0000000e+00
1141, 4.1250000e-01, 3.3750000e-01, 0.0000000e+00
1142, 4.2500000e-01, 3.3750000e-01, 0.0000000e+00
1143, 4.3750000e-01, 3.3750000e-01, 0.0000000e+00
1144, 4.5000000e-01, 3.3750000e-01, 0.0000000e+00
1145, 4.6250000e-01, 3.3750000e-01, 0.0000000e+00
1146, 4.7500000e-01, 3.3750000e-01, 0.0000000e+00
1147, 4.8750000e-01, 3.3750000e-01, 0.0000000e+00
1148, 5.0000000e-01, 3.3750000e-01, 0.0000000e+00
1149, 0.0000000e+00, 3.5000000e-01, 0.0000000e+00
1150, 1.2500000e-02, 3.5000000e-01, 0.0000000e+00
1151, 2.5000000e-02, 3.5000000e-01, 0.0000000e+00
1152, 3.7500000e-02, 3.5000000e-01, 0.0000000e+00
1153, 5.0000000e-02, 3.5000000e-01, 0.0000000e+00
1154, 6.2500000e-02, 3.5000000e-01, 0.0000000e+00
1155, 7.5000000e-02, 3.5000000e-01, 0.0000000e+00
1156, 8.7500000e-02, 3.5000000e-01, 0.0000000e+00
1157, 1.0000000e-01, 3.5000000e-01, 0.0000000e+00
1158, 1.1250000e-01, 3.5000000e-01, 0.0000000e+00
1159, 1.2500000e-01, 3.5000000e-01, 0.0000000e+00
1160, 1.3750000e-01, 3.5000000e-01, 0.0000000e+00
1161, 1.5000000e-01, 3.5000000e-01, 0.0000000e+00
1162, 1.6250000e-01, 3.5000000e-01, 0.0000000e+00
1163, 1.7500000e-01, 3.5000000e-01, 0.0000000e+00
1164, 1.8750000e-01, 3.5000000e-01, 0.0000000e+00
1165, 2.0000000e-01, 3.5000000e-01, 0.0000000e+00
1166, 2.1250000e-01, 3.5000000e-01, 0.0000000e+00
1167, 2.2500000e-01, 3.5000000e-01, 0.0000000e+00
1168, 2.3750000e-01, 3.5000000e-01, 0.0000000e+00
1169, 2.5000000e-01, 3.5000000e-01, 0.0000000e+00
1170, 2.6250000e-01, 3.5000000e-01, 0.0000000e+00
1171, 2.7500000e-01, 3.5000000e-01, 0.0000000e+00
1172, 2.8750000e-01, 3.5000000e-01, 0.0000000e+00
1173, 3.0000000e-01, 3.5000000e-01, 0.0000000e+00
1174, 3.1250000e-01, 3.5000000e-01, 0.0000000e+00
1175, 3.2500000e-01, 3.5000000e-01, 0.0000000e+00
1176, 3.3750000e-01, 3.5000000e-01, 0.0000000e+00
1177, 3.5000000e-01, 3.5000000e-01, 0.0000000e+00
1178, 3.6250000e-01, 3.5000000e-01, 0.0000000e+00
1179, 3.7500000e-01, 3.5000000e-01, 0.0000000e+00
1180, 3.8750000e-01, 3.5000000e-01, 0.0000000e+00
1181, 4.0000000e-01, 3.5000000e-01, 0.0000000e+00
1182, 4.1250000e-01, 3.5000000e-01, 0.0000000e+00
1183, 4.2500000e-01, 3.5000000e-01, 0.0000000e+00
1184, 4.3750000e-01, 3.5000000e-01, 0.0000000e+00
1185, 4.5000000e-01, 3.5000000e-01, 0.0000000e+00
1186, 4.6250000e-01, 3.5000000e-01, 0.0000000e+00
1187, 4.7500000e-01, 3.5000000e-01, 0.0000000e+00
1188, 4.8750000e-01, 3.5000000e-01, 0.0000000e+00
1189, 5.0000000e-01, 3.5000000e-01, 0.0000000e+00
1190, 0.0000000e+00, 3.6250000e-01, 0.0000000e+00
1191, 1.2500000e-02, 3.6250000e-01, 0.0000000e+00
1192, 2.5000000e-02, 3.6250000e-01, 0.0000000e+00
1193, 3.7500000e-02, 3.6250000e-01, 0.0000000e+00
1194, 5.0000000e-02, 3.6250000e-01, 0.0000000e+00
1195, 6.2500000e-02, 3.6250000e-01, 0.0000000e+00
1196, 7.5000000e-02, 3.6250000e-01, 0.0000000e+00
1197, 8.7500000e-02, 3.6250000e-01, 0.0000000e+00
1198, 1.0000000e-01, 3.6250000e-01, 0.0000000e+00
1199, 1.1250000e-01, 3.6250000e-01, 0.0000000e+00
1200, 1.2500000e-01, 3.6250000e-01, 0.0000000e+00
1201, 1.3750000e-01, 3.6250000e-01, 0.0000000e+00
1202, 1.5000000e-01, 3.6250000e-01, 0.0000000e+00
1203, 1.6250000e-01, 3.6250000e-01, 0.0000000e+00
1204, 1.7500000e-01, 3.6250000e-01, 0.0000000e+00
1205, 1.8750000e-01, 3.6250000e-01, 0.0000000e+00
1206, 2.0000000e-01, 3.6250000e-01, 0.0000000e+00
1207, 2.1250000e-01, 3.6250000e-01, 0.0000000e+00
1208, 2.2500000e-01, 3.6250000e-01, 0.0000000e+00
1209, 2.3750000e-01, 3.6250000e-01, 0.0000000e+00
1210, 2.5000000e-01, 3.6250000e-01, 0.0000000e+00
1211, 2.6250000e-01, 3.6250000e-01, 0.0000000e+00
1212, 2.7500000e-01, 3.6250000e-01, 0.0000000e+00
1213, 2.8750000e-01, 3.6250000e-01, 0.0000000e+00
1214, 3.0000000e-01, 3.6250000e-01, 0.0000000e+00
1215, 3.1250000e-01, 3.6250000e-01, 0.0000000e+00
1216, 3.2500000e-01, 3.6250000e-01, 0.0000000e+00
1217, 3.3750000e-01, 3.6250000e-01, 0.0000000e+00
1218, 3.5000000e-01, 3.6250000e-01, 0.0000000e+00
1219, 3.6250000e-01, 3.6250000e-01, 0.0000000e+00
1220, 3.7500000e-01, 3.6250000e-01, 0.0000000e+00
1221, 3.8750000e-01, 3.6250000e-01, 0.0000000e+00
1222, 4.0000000e-01, 3.6250000e-01, 0.0000000e+00
1223, 4.1250000e-01, 3.6250000e-01, 0.0000000e+00
1224, 4.2500000e-01, 3.6250000e-01, 0.0000000e+00
1225, 4.3750000e-01, 3.6250000e-01, 0.0000000e+00
1226, 4.5000000e-01, 3.6250000e-01, 0.0000000e+00
1227, 4.6250000e-01, 3.6250000e-01, 0.0000000e+00
1228, 4.7500000e-01, 3.6250000e-01, 0.0000000e+00
1229, 4.8750000e-01, 3.6250000e-01, 0.0000000e+00
1230, 5.0000000e-01, 3.6250000e-01, 0.0000000e+00
1231, 0.0000000e+00, 3.7500000e-01, 0.0000000e+00
1232, 1.2500000e-02, 3.7500000e-01, 0.0000000e+00
1233, 2.5000000e-02, 3.7500000e-01, 0.0000000e+00
1234, 3.7500000e-02, 3.7500000e-01, 0.0000000e+00
1235, 5.0000000e-02, 3.7500000e-01, 0.0000000e+00
1236, 6.2500000e-02, 3.7500000e-01, 0.0000000e+00
1237, 7.5000000e-02, 3.7500000e-01, 0.0000000e+00
1238, 8.7500000e-02, 3.7500000e-01, 0.0000000e+00
1239, 1.0000000e-01, 3.7500000e-01, 0.0000000e+00
1240, 1.1250000e-01, 3.7500000e-01, 0.0000000e+00
1241, 1.2500000e-01, 3.7500000e-01, 0.0000000e+00
1242, 1.3750000e-01, 3.7500000e-01, 0.0000000e+00
1243, 1.5000000e-01, 3.7500000e-01, 0.0000000e+00
1244, 1.6250000e-01, 3.7500000e-01, 0.0000000e+00
1245, 1.7500000e-01, 3.7500000e-01, 0.0000000e+00
1246, 1.8750000e-01, 3.7500000e-01, 0.0000000e+00
1247, 2.0000000e-01, 3.7500000e-01, 0.0000000e+00
1248, 2.1250000e-01, 3.7500000e-01, 0.0000000e+00
1249, 2.2500000e-01, 3.7500000e-01, 0.0000000e+00
1250, 2.3750000e-01, 3.7500000e-01, 0.0000000e+00
1251, 2.5000000e-01, 3.7500000e-01, 0.0000000e+00
1252, 2.6250000e-01, 3.7500000e-01, 0.0000000e+00
1253, 2.7500000e-01, 3.7500000e-01, 0.0000000e+00
1254, 2.8750000e-01, 3.7500000e-01, 0.0000000e+00
1255, 3.0000000e-01, 3.7500000e-01, 0.0000000e+00
1256, 3.1250000e-01, 3.7500000e-01, 0.0000000e+00
1257, 3.2500000e-01, 3.7500000e-01, 0.0000000e+00
1258, 3.3750000e-01, 3.7500000e-01, 0.0000000e+00
1259, 3.5000000e-01, 3.7500000e-01, 0.0000000e+00
1260, 3.6250000e-01, 3.7500000e-01, 0.0000000e+00
1261, 3.7500000e-01, 3.7500000e-01, 0.0000000e+00
1262, 3.8750000e-01, 3.7500000e-01, 0.0000000e+00
1263, 4.0000000e-01, 3.7500000e-01, 0.0000000e+00
1264, 4.1250000e-01, 3.7500000e-01, 0.0000000e+00
1265, 4.2500000e-01, 3.7500000e-01, 0.0000000e+00
1266, 4.3750000e-01, 3.7500000e-01, 0.0000000e+00
1267, 4.5000000e-01, 3.7500000e-01, 0.0000000e+00
1268, 4.6250000e-01, 3.7500000e-01, 0.0000000e+00
1269, 4.7500000e-01, 3.7500000e-01, 0.0000000e+00
1270, 4.8750000e-01, 3.7500000e-01, 0.0000000e+00
1271, 5.0000000e-01, 3.7500000e-01, 0.0000000e+00
1272, 0.0000000e+00, 3.8750000e-01, 0.0000000e+00
1273, 1.2500000e-02, 3.8750000e-01, 0.0000000e+00
1274, 2.5000000e-02, 3.8750000e-01, 0.0000000e+00
1275, 3.7500000e-02, 3.8750000e-01, 0.0000000e+00
1276, 5.0000000e-02, 3.8750000e-01, 0.0000000e+00
1277, 6.2500000e-02, 3.8750000e-01, 0.0000000e+00
1278, 7.5000000e-02, 3.8750000e-01, 0.0000000e+00
1279, 8.7500000e-02, 3.8750000e-01, 0.0000000e+00
1280, 1.0000000e-01, 3.8750000e-01, 0.0000000e+00
1281, 1.1250000e-01, 3.8750000e-01, 0.0000000e+00
1282, 1.2500000e-01, 3.8750000e-01, 0.0000000e+00
1283, 1.3750000e-01, 3.8750000e-01, 0.0000000e+00
1284, 1.5000000e-01, 3.8750000e-01, 0.0000000e+00
1285, 1.6250000e-01, 3.8750000e-01, 0.0000000e+00
1286, 1.7500000e-01, 3.8750000e-01, 0.0000000e+00
1287, 1.8750000e-01, 3.8750000e-01, 0.0000000e+00
1288, 2.0000000e-01, 3.8750000e-01, 0.0000000e+00
1289, 2.1250000e-01, 3.8750000e-01, 0.0000000e+00
1290, 2.2500000e-01, 3.8750000e-01, 0.0000000e+00
1291, 2.3750000e-01, 3.8750000e-01, 0.0000000e+00
1292, 2.5000000e-01, 3.8750000e-01, 0.0000000e+00
1293, 2.6250000e-01, 3.8750000e-01, 0.0000000e+00
1294, 2.7500000e-01, 3.8750000e-01, 0.0000000e+00
1295, 2.8750000e-01, 3.8750000e-01, 0.0000000e+00
1296, 3.0000000e-01, 3.8750000e-01, 0.0000000e+00
1297, 3.1250000e-01, 3.8750000e-01, 0.0000000e+00
1298, 3.2500000e-01, 3.8750000e-01, 0.0000000e+00
1299, 3.3750000e-01, 3.8750000e-01, 0.0000000e+00
1300, 3.5000000e-01, 3.8750000e-01, 0.0000000e+00
1301, 3.6250000e-01, 3.8750000e-01, 0.0000000e+00
1302, 3.7500000e-01, 3.8750000e-01, 0.0000000e+00
1303, 3.8750000e-01, 3.8750000e-01, 0.0000000e+00
1304, 4.0000000e-01, 3.8750000e-01, 0.0000000e+00
1305, 4.1250000e-01, 3.8750000e-01, 0.0000000e+00
1306, 4.2500000e-01, 3.8750000e-01, 0.0000000e+00
1307, 4.3750000e-01, 3.8750000e-01, 0.0000000e+00
1308, 4.5000000e-01, 3.8750000e-01, 0.0000000e+00
1309, 4.6250000e-01, 3.8750000e-01, 0.0000000e+00
1310, 4.7500000e-01, 3.8750000e-01, 0.0000000e+00
1311, 4.8750000e-01, 3.8750000e-01, 0.0000000e+00
1312, 5.0000000e-01, 3.8750000e-01, 0.0000000e+00
1313, 0.0000000e+00, 4.0000000e-01, 0.0000000e+00
1314, 1.2500000e-02, 4.0000000e-01, 0.0000000e+00
1315, 2.5000000e-02, 4.0000000e-01, 0.0000000e+00
1316, 3.7500000e-02, 4.0000000e-01, 0.0000000e+00
1317, 5.0000000e-02, 4.0000000e-01, 0.0000000e+00
1318, 6.2500000e-02, 4.0000000e-01, 0.0000000e+00
1319, 7.5000000e-02, 4.0000000e-01, 0.0000000e+00
1320, 8.7500000e-02, 4.0000000e-01, 0.0000000e+00
1321, 1.0000000e-01, 4.0000000e-01, 0.0000000e+00
1322, 1.1250000e-01, 4.0000000e-01, 0.0000000e+00
1323, 1.2500000e-01, 4.0000000e-01, 0.0000000e+00
1324, 1.3750000e-01, 4.0000000e-01, 0.0000000e+00
1325, 1.5000000e-01, 4.0000000e-01, 0.0000000e+00
1326, 1.6250000e-01, 4.0000000e-01, 0.0000000e+00
1327, 1.7500000e-01, 4.0000000e-01, 0.0000000e+00
1328, 1.8750000e-01, 4.0000000e-01, 0.0000000e+00
1329, 2.0000000e-01, 4.0000000e-01, 0.0000000e+00
1330, 2.1250000e-01, 4.0000000e-01, 0.0000000e+00
1331, 2.2500000e-01, 4.0000000e-01, 0.0000000e+00
1332, 2.3750000e-01, 4.0000000e-01, 0.0000000e+00
1333, 2.5000000e-01, 4.0000000e-01, 0.0000000e+00
1334, 2.6250000e-01, 4.0000000e-01, 0.0000000e+00
1335, 2.7500000e-01, 4.0000000e-01, 0.0000000e+00
1336, 2.8750000e-01, 4.0000000e-01, 0.0000000e+00
1337, 3.0000000e-01, 4.0000000e-01, 0.0000000e+00
1338, 3.1250000e-01, 4.0000000e-01, 0.0000000e+00
1339, 3.2500000e-01, 4.0000000e-01, 0.0000000e+00
1340, 3.3750000e-01, 4.0000000e-01, 0.0000000e+00
1341, 3.5000000e-01, 4.0000000e-01, 0.0000000e+00
1342, 3.6250000e-01, 4.0000000e-01, 0.0000000e+00
1343, 3.7500000e-01, 4.0000000e-01, 0.0000000e+00
1344, 3.8750000e-01, 4.0000000e-01, 0.0000000e+00
1345, 4.0000000e-01, 4.0000000e-01, 0.0000000e+00
1346, 4.1250000e-01, 4.0000000e-01, 0.0000000e+00
1347, 4.2500000e-01, 4.0000000e-01, 0.0000000e+00
1348, 4.3750000e-01, 4.0000000e-01, 0.0000000e+00
1349, 4.5000000e-01, 4.0000000e-01, 0.0000000e+00
1350, 4.6250000e-01, 4.0000000e-01, 0.0000000e+00
1351, 4.7500000e-01, 4.0000000e-01, 0.0000000e+00
1352, 4.8750000e-01, 4.0000000e-01, 0.0000000e+00
1353, 5.0000000e-01, 4.0000000e-01, 0.0000000e+00
1354, 0.0000000e+00, 4.1250000e-01, 0.0000000e+00
1355, 1.2500000e-02, 4.1250000e-01, 0.0000000e+00
1356, 2.5000000e-02, 4.1250000e-01, 0.0000000e+00
1357, 3.7500000e-02, 4.1250000e-01, 0.0000000e+00
1358, 5.0000000e-02, 4.1250000e-01, 0.0000000e+00
1359, 6.2500000e-02, 4.1250000e-01, 0.0000000e+00
1360, 7.5000000e-02, 4.1250000e-01, 0.0000000e+00
1361, 8.7500000e-02, 4.1250000e-01, 0.0000000e+00
1362, 1.0000000e-01, 4.1250000e-01, 0.0000000e+00
1363, 1.1250000e-01, 4.1250000e-01, 0.0000000e+00
1364, 1.2500000e-01, 4.1250000e-01, 0.0000000e+00
1365, 1.3750000e-01, 4.1250000e-01, 0.0000000e+00
1366, 1.5000000e-01, 4.1250000e-01, 0.0000000e+00
1367, 1.6250000e-01, 4.1250000e-01, 0.0000000e+00
1368, 1.7500000e-01, 4.1250000e-01, 0.0000000e+00
1369, 1.8750000e-01, 4.1250000e-01, 0.0000000e+00
1370, 2.0000000e-01, 4.1250000e-01, 0.0000000e+00
1371, 2.1250000e-01, 4.1250000e-01, 0.0000000e+00
1372, 2.2500000e-01, 4.1250000e-01, 0.0000000e+00
1373, 2.3750000e-01, 4.1250000e-01, 0.0000000e+00
1374, 2.5000000e-01, 4.1250000e-01, 0.0000000e+00
1375, 2.6250000e-01, 4.1250000e-01, 0.0000000e+00
1376, 2.7500000e-01, 4.1250000e-01, 0.0000000e+00
1377, 2.8750000e-01, 4.1250000e-01, 0.0000000e+00
1378, 3.0000000e-01, 4.1250000e-01, 0.0000000e+00
1379, 3.1250000e-01, 4.1250000e-01, 0.0000000e+00
1380, 3.2500000e-01, 4.1250000e-01, 0.0000000e+00
1381, 3.3750000e-01, 4.1250000e-01, 0.0000000e+00
1382, 3.5000000e-01, 4.1250000e-01, 0.0000000e+00
1383, 3.6250000e-01, 4.1250000e-01, 0.0000000e+00
1384, 3.7500000e-01, 4.1250000e-01, 0.0000000e+00
1385, 3.8750000e-01, 4.1250000e-01, 0.0000000e+00
1386, 4.0000000e-01, 4.1250000e-01, 0.0000000e+00
1387, 4.1250000e-01, 4.1250000e-01, 0.0000000e+00
1388, 4.2500000e-01, 4.1250000e-01, 0.0000000e+00
1389, 4.3750000e-01, 4.1250000e-01, 0.0000000e+00
1390, 4.5000000e-01, 4.1250000e-01, 0.0000000e+00
1391, 4.6250000e-01, 4.1250000e-01, 0.0000000e+00
1392, 4.7500000e-01, 4.1250000e-01, 0.0000000e+00
1393, 4.8750000e-01, 4.1250000e-01, 0.0000000e+00
1394, 5.0000000e-01, 4.1250000e-01, 0.0000000e+00
1395, 0.0000000e+00, 4.2500000e-01, 0.0000000e+00
1396, 1.2500000e-02, 4.2500000e-01, 0.0000000e+00
1397, 2.5000000e-02, 4.2500000e-01, 0.0000000e+00
1398, 3.7500000e-02, 4.2500000e-01, 0.0000000e+00
1399, 5.0000000e-02, 4.2500000e-01, 0.0000000e+00
1400, 6.2500000e-02, 4.2500000e-01, 0.0000000e+00
1401, 7.5000000e-02, 4.2500000e-01, 0.0000000e+00
1402, 8.7500000e-02, 4.2500000e-01, 0.0000000e+00
1403, 1.0000000e-01, 4.2500000e-01, 0.0000000e+00
1404, 1.1250000e-01, 4.2500000e-01, 0.0000000e+00
1405, 1.2500000e-01, 4.2500000e-01, 0.0000000e+00
1406, 1.3750000e-01, 4.2500000e-01, 0.0000000e+00
1407, 1.5000000e-01, 4.2500000e-01, 0.0000000e+00
1408, 1.6250000e-01, 4.2500000e-01, 0.0000000e+00
1409, 1.7500000e-01, 4.2500000e-01, 0.0000000e+00
1410, 1.8750000e-01, 4.2500000e-01, 0.0000000e+00
1411, 2.0000000e-01, 4.2500000e-01, 0.0000000e+00
1412, 2.1250000e-01, 4.2500000e-01, 0.0000000e+00
1413, 2.2500000e-01, 4.2500000e-01, 0.0000000e+00
1414, 2.3750000e-01, 4.2500000e-01, 0.0000000e+00
1415, 2.5000000e-01, 4.2500000e-01, 0.0000000e+00
1416, 2.6250000e-01, 4.2500000e-01, 0.0000000e+00
1417, 2.7500000e-01, 4.2500000e-01, 0.0000000e+00
1418, 2.8750000e-01, 4.2500000e-01, 0.0000000e+00
1419, 3.0000000e-01, 4.2500000e-01, 0.0000000e+00
1420, 3.1250000e-01, 4.2500000e-01, 0.0000000e+00
1421, 3.2500000e-01, 4.2500000e-01, 0.0000000e+00
1422, 3.3750000e-01, 4.2500000e-01, 0.0000000e+00
1423, 3.5000000e-01, 4.2500000e-01, 0.0000000e+00
1424, 3.6250000e-01, 4.2500000e-01, 0.0000000e+00
1425, 3.7500000e-01, 4.2500000e-01, 0.0000000e+00
1426, 3.8750000e-01, 4.2500000e-01, 0.0000000e+00
1427, 4.0000000e-01, 4.2500000e-01, 0.0000000e+00
1428, 4.1250000e-01, 4.2500000e-01, 0.0000000e+00
1429, 4.2500000e-01, 4.2500000e-01, 0.0000000e+00
1430, 4.3750000e-01, 4.2500000e-01, 0.0000000e+00
1431, 4.5000000e-01, 4.2500000e-01, 0.0000000e+00
1432, 4.6250000e-01, 4.2500000e-01, 0.0000000e+00
1433, 4.7500000e-01, 4.2500000e-01, 0.0000000e+00
1434, 4.8750000e-01, 4.2500000e-01, 0.0000000e+00
1435, 5.0000000e-01, 4.2500000e-01, 0.0000000e+00
1436, 0.0000000e+00, 4.3750000e-01, 0.0000000e+00
1437, 1.2500000e-02, 4.3750000e-01, 0.0000000e+00
1438, 2.5000000e-02, 4.3750000e-01, 0.0000000e+00
1439, 3.7500000e-02, 4.3750000e-01, 0.0000000e+00
1440, 5.0000000e-02, 4.3750000e-01, 0.0000000e+00
1441, 6.2500000e-02, 4.3750000e-01, 0.0000000e+00
1442, 7.5000000e-02, 4.3750000e-01, 0.0000000e+00
1443, 8.7500000e-02, 4.3750000e-01, 0.0000000e+00
1444, 1.0000000e-01, 4.3750000e-01, 0.0000000e+00
1445, 1.1250000e-01, 4.3750000e-01, 0.0000000e+00
1446, 1.2500000e-01, 4.3750000e-01, 0.0000000e+00
1447, 1.3750000e-01, 4.3750000e-01, 0.0000000e+00
1448, 1.5000000e-01, 4.3750000e-01, 0.0000000e+00
1449, 1.6250000e-01, 4.3750000e-01, 0.0000000e+00
1450, 1.7500000e-01, 4.3750000e-01, 0.0000000e+00
1451, 1.8750000e-01, 4.3750000e-01, 0.0000000e+00
1452, 2.0000000e-01, 4.3750000e-01, 0.0000000e+00
1453, 2.1250000e-01, 4.3750000e-01, 0.0000000e+00
1454, 2.2500000e-01, 4.3750000e-01, 0.0000000e+00
1455, 2.3750000e-01, 4.3750000e-01, 0.0000000e+00
1456, 2.5000000e-01, 4.3750000e-01, 0.0000000e+00
1457, 2.6250000e-01, 4.3750000e-01, 0.0000000e+00
1458, 2.7500000e-01, 4.3750000e-01, 0.0000000e+00
1459, 2.8750000e-01, 4.3750000e-01, 0.0000000e+00
1460, 3.0000000e-01, 4.3750000e-01, 0.0000000e+00
1461, 3.1250000e-01, 4.3750000e-01, 0.0000000e+00
1462, 3.2500000e-01, 4.3750000e-01, 0.0000000e+00
1463, 3.3750000e-01, 4.3750000e-01, 0.0000000e+00
1464, 3.5000000e-01, 4.3750000e-01, 0.0000000e+00
1465, 3.6250000e-01, 4.3750000e-01, 0.0000000e+00
1466, 3.7500000e-01, 4.3750000e-01, 0.0000000e+00
1467, 3.8750000e-01, 4.3750000e-01, 0.0000000e+00
1468, 4.0000000e-01, 4.3750000e-01, 0.0000000e+00
1469, 4.1250000e-01, 4.3750000e-01, 0.0000000e+00
1470, 4.2500000e-01, 4.3750000e-01, 0.0000000e+00
1471, 4.3750000e-01, 4.3750000e-01, 0.0000000e+00
1472, 4.5000000e-01, 4.3750000e-01, 0.0000000e+00
1473, 4.6250000e-01, 4.3750000e-01, 0.0000000e+00
1474, 4.7500000e-01, 4.3750000e-01, 0.0000000e+00
1475, 4.8750000e-01, 4.3750000e-01, 0.0000000e+00
1476, 5.0000000e-01, 4.3750000e-01, 0.0000000e+00
1477, 0.0000000e+00, 4.5000000e-01, 0.0000000e+00
1478, 1.2500000e-02, 4.5000000e-01, 0.0000000e+00
1479, 2.5000000e-02, 4.5000000e-01, 0.0000000e+00
1480, 3.7500000e-02, 4.5000000e-01, 0.0000000e+00
1481, 5.0000000e-02, 4.5000000e-01, 0.0000000e+00
1482, 6.2500000e-02, 4.5000000e-01, 0.0000000e+00
1483, 7.5000000e-02, 4.5000000e-01, 0.0000000e+00
1484, 8.7500000e-02, 4.5000000e-01, 0.0000000e+00
1485, 1.0000000e-01, 4.5000000e-01, 0.0000000e+00
1486, 1.1250000e-01, 4.5000000e-01, 0.0000000e+00
1487, 1.2500000e-01, 4.5000000e-01, 0.0000000e+00
1488, 1.3750000e-01, 4.5000000e-01, 0.0000000e+00
1489, 1.5000000e-01, 4.5000000e-01, 0.0000000e+00
1490, 1.6250000e-01, 4.5000000e-01, 0.0000000e+00
1491, 1.7500000e-01, 4.5000000e-01, 0.0000000e+00
1492, 1.8750000e-01, 4.5000000e-01, 0.0000000e+00
1493, 2.0000000e-01, 4.5000000e-01, 0.0000000e+00
1494, 2.1250000e-01, 4.5000000e-01, 0.0000000e+00
1495, 2.2500000e-01, 4.5000000e-01, 0.0000000e+00
1496, 2.3750000e-01, 4.5000000e-01, 0.0000000e+00
1497, 2.5000000e-01, 4.5000000e-01, 0.0000000e+00
1498, 2.6250000e-01, 4.5000000e-01, 0.0000000e+00
1499, 2.7500000e-01, 4.5000000e-01, 0.0000000e+00
1500, 2.8750000e-01, 4.5000000e-01, 0.0000000e+00
1501, 3.0000000e-01, 4.5000000e-01, 0.0000000e+00
1502, 3.1250000e-01, 4.5000000e-01, 0.0000000e+00
1503, 3.2500000e-01, 4.5000000e-01, 0.0000000e+00
1504, 3.3750000e-01, 4.5000000e-01, 0.0000000e+00
1505, 3.5000000e-01, 4.5000000e-01, 0.0000000e+00
1506, 3.6250000e-01, 4.5000000e-01, 0.0000000e+00
1507, 3.7500000e-01, 4.5000000e-01, 0.0000000e+00
1508, 3.8750000e-01, 4.5000000e-01, 0.0000000e+00
1509, 4.0000000e-01, 4.5000000e-01, 0.0000000e+00
1510, 4.1250000e-01, 4.5000000e-01, 0.0000000e+00
1511, 4.2500000e-01, 4.5000000e-01, 0.0000000e+00
1512, 4.3750000e-01, 4.5000000e-01, 0.0000000e+00
1513, 4.5000000e-01, 4.5000000e-01, 0.0000000e+00
1514, 4.6250000e-01, 4.5000000e-01, 0.0000000e+00
1515, 4.7500000e-01, 4.5000000e-01, 0.0000000e+00
1516, 4.8750000e-01, 4.5000000e-01, 0.0000000e+00
1517, 5.0000000e-01, 4.5000000e-01, 0.0000000e+00
1518, 0.0000000e+00, 4.6250000e-01, 0.0000000e+00
1519, 1.2500000e-02, 4.6250000e-01, 0.0000000e+00
1520, 2.5000000e-02, 4.6250000e-01, 0.0000000e+00
1521, 3.7500000e-02, 4.6250000e-01, 0.0000000e+00
1522, 5.0000000e-02, 4.6250000e-01, 0.0000000e+00
1523, 6.2500000e-02, 4.6250000e-01, 0.0000000e+00
1524, 7.5000000e-02, 4.6250000e-01, 0.0000000e+00
1525, 8.7500000e-02, 4.6250000e-01, 0.0000000e+00
1526, 1.0000000e-01, 4.6250000e-01, 0.0000000e+00
1527, 1.1250000e-01, 4.6250000e-01, 0.0000000e+00
1528, 1.2500000e-01, 4.6250000e-01, 0.0000000e+00
1529, 1.3750000e-01, 4.6250000e-01, 0.0000000e+00
1530, 1.5000000e-01, 4.6250000e-01, 0.0000000e+00
1531, 1.6250000e-01, 4.6250000e-01, 0.0000000e+00
1532, 1.7500000e-01, 4.6250000e-01, 0.0000000e+00
1533, 1.8750000e-01, 4.6250000e-01, 0.0000000e+00
1534, 2.0000000e-01, 4.6250000e-01, 0.0000000e+00
1535, 2.1250000e-01, 4.6250000e-01, 0.0000000e+00
1536, 2.2500000e-01, 4.6250000e-01, 0.0000000e+00
1537, 2.3750000e-01, 4.6250000e-01, 0.0000000e+00
1538, 2.5000000e-01, 4.6250000e-01, 0.0000000e+00
1539, 2.6250000e-01, 4.6250000e-01, 0.0000000e+00
1540, 2.7500000e-01, 4.6250000e-01, 0.0000000e+00
1541, 2.8750000e-01, 4.6250000e-01, 0.0000000e+00
1542, 3.0000000e-01, 4.6250000e-01, 0.0000000e+00
1543, 3.1250000e-01, 4.6250000e-01, 0.0000000e+00
1544, 3.2500000e-01, 4.6250000e-01, 0.0000000e+00
1545, 3.3750000e-01, 4.6250000e-01, 0.0000000e+00
1546, 3.5000000e-01, 4.6250000e-01, 0.0000000e+00
1547, 3.6250000e-01, 4.6250000e-01, 0.0000000e+00
1548, 3.7500000e-01, 4.6250000e-01, 0.0000000e+00
1549, 3.8750000e-01, 4.6250000e-01, 0.0000000e+00
1550, 4.0000000e-01, 4.6250000e-01, 0.0000000e+00
1551, 4.1250000e-01, 4.6250000e-01, 0.0000000e+00
1552, 4.2500000e-01, 4.6250000e-01, 0.0000000e+00
1553, 4.3750000e-01, 4.6250000e-01, 0.0000000e+00
1554, 4.5000000e-01, 4.6250000e-01, 0.0000000e+00
1555, 4.6250000e-01, 4.6250000e-01, 0.0000000e+00
1556, 4.7500000e-01, 4.6250000e-01, 0.0000000e+00
1557, 4.8750000e-01, 4.6250000e-01, 0.0000000e+00
1558, 5.0000000e-01, 4.6250000e-01, 0.0000000e+00
1559, 0.0000000e+00, 4.7500000e-01, 0.0000000e+00
1560, 1.2500000e-02, 4.7500000e-01, 0.0000000e+00
1561, 2.5000000e-02, 4.7500000e-01, 0.0000000e+00
1562, 3.7500000e-02, 4.7500000e-01, 0.0000000e+00
1563, 5.0000000e-02, 4.7500000e-01, 0.0000000e+00
1564, 6.2500000e-02, 4.7500000e-01, 0.0000000e+00
1565, 7.5000000e-02, 4.7500000e-01, 0.0000000e+00
1566, 8.7500000e-02, 4.7500000e-01, 0.0000000e+00
1567, 1.0000000e-01, 4.7500000e-01, 0.0000000e+00
1568, 1.1250000e-01, 4.7500000e-01, 0.0000000e+00
1569, 1.2500000e-01, 4.7500000e-01, 0.0000000e+00
1570, 1.3750000e-01, 4.7500000e-01, 0.0000000e+00
1571, 1.5000000e-01, 4.7500000e-01, 0.0000000e+00
1572, 1.6250000e-01, 4.7500000e-01, 0.0000000e+00
1573, 1.7500000e-01, 4.7500000e-01, 0.0000000e+00
1574, 1.8750000e-01, 4.7500000e-01, 0.0000000e+00
1575, 2.0000000e-01, 4.7500000e-01, 0.0000000e+00
1576, 2.1250000e-01, 4.7500000e-01, 0.0000000e+00
1577, 2.2500000e-01, 4.7500000e-01, 0.0000000e+00
1578, 2.3750000e-01, 4.7500000e-01, 0.0000000e+00
1579, 2.5000000e-01, 4.7500000e-01, 0.0000000e+00
1580, 2.6250000e-01, 4.7500000e-01, 0.0000000e+00
1581, 2.7500000e-01, 4.7500000e-01, 0.0000000e+00
1582, 2.8750000e-01, 4.7500000e-01, 0.0000000e+00
1583, 3.0000000e-01, 4.7500000e-01, 0.0000000e+00
1584, 3.1250000e-01, 4.7500000e-01, 0.0000000e+00
1585, 3.2500000e-01, 4.7500000e-01, 0.0000000e+00
1586, 3.3750000e-01, 4.7500000e-01, 0.0000000e+00
1587, 3.5000000e-01, 4.7500000e-01, 0.0000000e+00
1588, 3.6250000e-01, 4.7500000e-01, 0.0000000e+00
1589, 3.7500000e-01, 4.7500000e-01, 0.0000000e+00
1590, 3.8750000e-01, 4.7500000e-01, 0.0000000e+00
1591, 4.0000000e-01, 4.7500000e-01, 0.0000000e+00
1592, 4.1250000e-01, 4.7500000e-01, 0.0000000e+00
1593, 4.2500000e-01, 4.7500000e-01, 0.0000000e+00
1594, 4.3750000e-01, 4.7500000e-01, 0.0000000e+00
1595, 4.5000000e-01, 4.7500000e-01, 0.0000000e+00
1596, 4.6250000e-01, 4.7500000e-01, 0.0000000e+00
1597, 4.7500000e-01, 4.7500000e-01, 0.0000000e+00
1598, 4.8750000e-01, 4.7500000e-01, 0.0000000e+00
1599, 5.0000000e-01, 4.7500000e-01, 0.0000000e+00
1600, 0.0000000e+00, 4.8750000e-01, 0.0000000e+00
1601, 1.2500000e-02, 4.8750000e-01, 0.0000000e+00
1602, 2.5000000e-02, 4.8750000e-01, 0.0000000e+00
1603, 3.7500000e-02, 4.8750000e-01, 0.0000000e+00
1604, 5.0000000e-02, 4.8750000e-01, 0.0000000e+00
1605, 6.2500000e-02, 4.8750000e-01, 0.0000000e+00
1606, 7.5000000e-02, 4.8750000e-01, 0.0000000e+00
1607, 8.7500000e-02, 4.8750000e-01, 0.0000000e+00
1608, 1.0000000e-01, 4.8750000e-01, 0.0000000e+00
1609, 1.1250000e-01, 4.8750000e-01, 0.0000000e+00
1610, 1.2500000e-01, 4.8750000e-01, 0.0000000e+00
1611, 1.3750000e-01, 4.8750000e-01, 0.0000000e+00
1612, 1.5000000e-01, 4.8750000e-01, 0.0000000e+00
1613, 1.6250000e-01, 4.8750000e-01, 0.0000000e+00
1614, 1.7500000e-01, 4.8750000e-01, 0.0000000e+00
1615, 1.8750000e-01, 4.8750000e-01, 0.0000000e+00
1616, 2.0000000e-01, 4.8750000e-01, 0.0000000e+00
1617, 2.1250000e-01, 4.8750000e-01, 0.0000000e+00
1618, 2.2500000e-01, 4.8750000e-01, 0.0000000e+00
1619, 2.3750000e-01, 4.8750000e-01, 0.0000000e+00
1620, 2.5000000e-01, 4.8750000e-01, 0.0000000e+00
1621, 2.6250000e-01, 4.8750000e-01, 0.0000000e+00
1622, 2.7500000e-01, 4.8750000e-01, 0.0000000e+00
1623, 2.8750000e-01, 4.8750000e-01, 0.0000000e+00
1624, 3.0000000e-01, 4.8750000e-01, 0.0000000e+00
1625, 3.1250000e-01, 4.8750000e-01, 0.0000000e+00
1626, 3.2500000e-01, 4.8750000e-01, 0.0000000e+00
1627, 3.3750000e-01, 4.8750000e-01, 0.0000000e+00
1628, 3.5000000e-01, 4.8750000e-01, 0.0000000e+00
1629, 3.6250000e-01, 4.8750000e-01, 0.0000000e+00
1630, 3.7500000e-01, 4.8750000e-01, 0.0000000e+00
1631, 3.8750000e-01, 4.8750000e-01, 0.0000000e+00
1632, 4.0000000e-01, 4.8750000e-01, 0.0000000e+00
1633, 4.1250000e-01, 4.8750000e-01, 0.0000000e+00
1634, 4.2500000e-01, 4.8750000e-01, 0.0000000e+00
1635, 4.3750000e-01, 4.8750000e-01, 0.0000000e+00
1636, 4.5000000e-01, 4.8750000e-01, 0.0000000e+00
1637, 4.6250000e-01, 4.8750000e-01, 0.0000000e+00
1638, 4.7500000e-01, 4.8750000e-01, 0.0000000e+00
1639, 4.8750000e-01, 4.8750000e-01, 0.0000000e+00
1640, 5.0000000e-01, 4.8750000e-01, 0.0000000e+00
1641, 0.0000000e+00, 5.0000000e-01, 0.0000000e+00
1642, 1.2500000e-02, 5.0000000e-01, 0.0000000e+00
1643, 2.5000000e-02, 5.0000000e-01, 0.0000000e+00
1644, 3.7500000e-02, 5.0000000e-01, 0.0000000e+00
1645, 5.0000000e-02, 5.0000000e-01, 0.0000000e+00
1646, 6.2500000e-02, 5.0000000e-01, 0.0000000e+00
1647, 7.5000000e-02, 5.0000000e-01, 0.0000000e+00
1648, 8.7500000e-02, 5.0000000e-01, 0.0000000e+00
1649, 1.0000000e-01, 5.0000000e-01, 0.0000000e+00
1650, 1.1250000e-01, 5.0000000e-01, 0.0000000e+00
1651, 1.2500000e-01, 5.0000000e-01, 0.0000000e+00
1652, 1.3750000e-01, 5.0000000e-01, 0.0000000e+00
1653, 1.5000000e-01, 5.0000000e-01, 0.0000000e+00
1654, 1.6250000e-01, 5.0000000e-01, 0.0000000e+00
1655, 1.7500000e-01, 5.0000000e-01, 0.0000000e+00
1656, 1.8750000e-01, 5.0000000e-01, 0.0000000e+00
1657, 2.0000000e-01, 5.0000000e-01, 0.0000000e+00
1658, 2.1250000e-01, 5.0000000e-01, 0.0000000e+00
1659, 2.2500000e-01, 5.0000000e-01, 0.0000000e+00
1660, 2.3750000e-01, 5.0000000e-01, 0.0000000e+00
1661, 2.5000000e-01, 5.0000000e-01, 0.0000000e+00
1662, 2.6250000e-01, 5.0000000e-01, 0.0000000e+00
1663, 2.7500000e-01, 5.0000000e-01, 0.0000000e+00
1664, 2.8750000e-01, 5.0000000e-01, 0.0000000e+00
1665, 3.0000000e-01, 5.0000000e-01, 0.0000000e+00
1666, 3.1250000e-01, 5.0000000e-01, 0.0000000e+00
1667, 3.2500000e-01, 5.0000000e-01, 0.0000000e+00
1668, 3.3750000e-01, 5.0000000e-01, 0.0000000e+00
1669, 3.5000000e-01, 5.0000000e-01, 0.0000000e+00
1670, 3.6250000e-01, 5.0000000e-01, 0.0000000e+00
1671, 3.7500000e-01, 5.0000000e-01, 0.0000000e+00
1672, 3.8750000e-01, 5.0000000e-01, 0.0000000e+00
1673, 4.0000000e-01, 5.0000000e-01, 0.0000000e+00
1674, 4.1250000e-01, 5.0000000e-01, 0.0000000e+00
1675, 4.2500000e-01, 5.0000000e-01, 0.0000000e+00
1676, 4.3750000e-01, 5.0000000e-01, 0.0000000e+00
1677, 4.5000000e-01, 5.0000000e-01, 0.0000000e+00
1678, 4.6250000e-01, 5.0000000e-01, 0.0000000e+00
1679, 4.7500000e-01, 5.0000000e-01, 0.0000000e+00
1680, 4.8750000e-01, 5.0000000e-01, 0.0000000e+00
1681, 5.0000000e-01, 5.0000000e-01, 0.0000000e+00
1682, 0.0000000e+00, 0.0000000e+00, 4.3000000e-04
1683, 1.2500000e-02, 0.0000000e+00, 4.3000000e-04
1684, 2.5000000e-02, 0.0000000e+00, 4.3000000e-04
1685, 3.7500000e-02, 0.0000000e+00, 4.3000000e-04
1686, 5.0000000e-02, 0.0000000e+00, 4.3000000e-04
1687, 6.2500000e-02, 0.0000000e+00, 4.3000000e-04
1688, 7.5000000e-02, 0.0000000e+00, 4.3000000e-04
1689, 8.7500000e-02, 0.0000000e+00, 4.3000000e-04
1690, 1.0000000e-01, 0.0000000e+00, 4.3000000e-04
1691, 1.1250000e-01, 0.0000000e+00, 4.3000000e-04
1692, 1.2500000e-01, 0.0000000e+00, 4.3000000e-04
1693, 1.3750000e-01, 0.0000000e+00, 4.3000000e-04
1694, 1.5000000e-01, 0.0000000e+00, 4.3000000e-04
1695, 1.6250000e-01, 0.0000000e+00, 4.3000000e-04
1696, 1.7500000e-01, 0.0000000e+00, 4.3000000e-04
1697, 1.8750000e-01, 0.0000000e+00, 4.3000000e-04
1698, 2.0000000e-01, 0.0000000e+00, 4.3000000e-04
1699, 2.1250000e-01, 0.0000000e+00, 4.3000000e-04
1700, 2.2500000e-01, 0.0000000e+00, 4.3000000e-04
1701, 2.3750000e-01, 0.0000000e+00, 4.3000000e-04
1702, 2.5000000e-01, 0.0000000e+00, 4.3000000e-04
1703, 2.6250000e-01, 0.0000000e+00, 4.3000000e-04
1704, 2.7500000e-01, 0.0000000e+00, 4.3000000e-04
1705, 2.8750000e-01, 0.0000000e+00, 4.3000000e-04
1706, 3.0000000e-01, 0.0000000e+00, 4.3000000e-04
1707, 3.1250000e-01, 0.0000000e+00, 4.3000000e-04
1708, 3.2500000e-01, 0.0000000e+00, 4.3000000e-04
1709, 3.3750000e-01, 0.0000000e+00, 4.3000000e-04
1710, 3.5000000e-01, 0.0000000e+00, 4.3000000e-04
1711, 3.6250000e-01, 0.0000000e+00, 4.3000000e-04
1712, 3.7500000e-01, 0.0000000e+00, 4.3000000e-04
1713, 3.8750000e-01, 0.0000000e+00, 4.3000000e-04
1714, 4.0000000e-01, 0.0000000e+00, 4.3000000e-04
1715, 4.1250000e-01, 0.0000000e+00, 4.3000000e-04
1716, 4.2500000e-01, 0.0000000e+00, 4.3000000e-04
1717, 4.3750000e-01, 0.0000000e+00, 4.3000000e-04
1718, 4.5000000e-01, 0.0000000e+00, 4.3000000e-04
1719, 4.6250000e-01, 0.0000000e+00, 4.3000000e-04
1720, 4.7500000e-01, 0.0000000e+00, 4.3000000e-04
1721, 4.8750000e-01, 0.0000000e+00, 4.3000000e-04
1722, 5.0000000e-01, 0.0000000e+00, 4.3000000e-04
1723, 0.0000000e+00, 1.2500000e-02, 4.3000000e-04
1724, 1.2500000e-02, 1.2500000e-02, 4.3000000e-04
1725, 2.5000000e-02, 1.2500000e-02, 4.3000000e-04
1726, 3.7500000e-02, 1.2500000e-02, 4.3000000e-04
1727, 5.0000000e-02, 1.2500000e-02, 4.3000000e-04
1728, 6.2500000e-02, 1.2500000e-02, 4.3000000e-04
1729, 7.5000000e-02, 1.2500000e-02, 4.3000000e-04
1730, 8.7500000e-02, 1.2500000e-02, 4.3000000e-04
1731, 1.0000000e-01, 1.2500000e-02, 4.3000000e-04
1732, 1.1250000e-01, 1.2500000e-02, 4.3000000e-04
1733, 1.2500000e-01, 1.2500000e-02, 4.3000000e-04
1734, 1.3750000e-01, 1.2500000e-02, 4.3000000e-04
1735, 1.5000000e-01, 1.2500000e-02, 4.3000000e-04
1736, 1.6250000e-01, 1.2500000e-02, 4.3000000e-04
1737, 1.7500000e-01, 1.2500000e-02, 4.3000000e-04
1738, 1.8750000e-01, 1.2500000e-02, 4.3000000e-04
1739, 2.0000000e-01, 1.2500000e-02, 4.3000000e-04
1740, 2.1250000e-01, 1.2500000e-02, 4.3000000e-04
1741, 2.2500000e-01, 1.2500000e-02, 4.3000000e-04
1742, 2.3750000e-01, 1.2500000e-02, 4.3000000e-04
1743, 2.5000000e-01, 1.2500000e-02, 4.3000000e-04
1744, 2.6250000e-01, 1.2500000e-02, 4.3000000e-04
1745, 2.7500000e-01, 1.2500000e-02, 4.3000000e-04
1746, 2.8750000e-01, 1.2500000e-02, 4.3000000e-04
1747, 3.0000000e-01, 1.2500000e-02, 4.3000000e-04
1748, 3.1250000e-01, 1.2500000e-02, 4.3000000e-04
1749, 3.2500000e-01, 1.2500000e-02, 4.3000000e-04
1750, 3.3750000e-01, 1.2500000e-02, 4.3000000e-04
1751, 3.5000000e-01, 1.2500000e-02, 4.3000000e-04
1752, 3.6250000e-01, 1.2500000e-02, 4.3000000e-04
1753, 3.7500000e-01, 1.2500000e-02, 4.3000000e-04
1754, 3.8750000e-01, 1.2500000e-02, 4.3000000e-04
1755, 4.0000000e-01, 1.2500000e-02, 4.3000000e-04
1756, 4.1250000e-01, 1.2500000e-02, 4.3000000e-04
1757, 4.2500000e-01, 1.2500000e-02, 4.3000000e-04
1758, 4.3750000e-01, 1.2500000e-02, 4.3000000e-04
1759, 4.5000000e-01, 1.2500000e-02, 4.3000000e-04
1760, 4.6250000e-01, 1.2500000e-02, 4.3000000e-04
1761, 4.7500000e-01, 1.2500000e-02, 4.3000000e-04
1762, 4.8750000e-01, 1.2500000e-02, 4.3000000e-04
1763, 5.0000000e-01, 1.2500000e-02, 4.3000000e-04
1764, 0.0000000e+00, 2.5000000e-02, 4.3000000e-04
1765, 1.2500000e-02, 2.5000000e-02, 4.3000000e-04
1766, 2.5000000e-02, 2.5000000e-02, 4.3000000e-04
1767, 3.7500000e-02, 2.5000000e-02, 4.3000000e-04
1768, 5.0000000e-02, 2.5000000e-02, 4.3000000e-04
1769, 6.2500000e-02, 2.5000000e-02, 4.3000000e-04
1770, 7.5000000e-02, 2.5000000e-02, 4.3000000e-04
1771, 8.7500000e-02, 2.5000000e-02, 4.3000000e-04
1772, 1.0000000e-01, 2.5000000e-02, 4.3000000e-04
1773, 1.1250000e-01, 2.5000000e-02, 4.3000000e-04
1774, 1.2500000e-01, 2.5000000e-02, 4.3000000e-04
1775, 1.3750000e-01, 2.5000000e-02, 4.3000000e-04
1776, 1.5000000e-01, 2.5000000e-02, 4.3000000e-04
1777, 1.6250000e-01, 2.5000000e-02, 4.3000000e-04
1778, 1.7500000e-01, 2.5000000e-02, 4.3000000e-04
1779, 1.8750000e-01, 2.5000000e-02, 4.3000000e-04
1780, 2.0000000e-01, 2.5000000e-02, 4.3000000e-04
1781, 2.1250000e-01, 2.5000000e-02, 4.3000000e-04
1782, 2.2500000e-01, 2.5000000e-02, 4.3000000e-04
1783, 2.3750000e-01, 2.5000000e-02, 4.3000000e-04
1784, 2.5000000e-01, 2.5000000e-02, 4.3000000e-04
1785, 2.6250000e-01, 2.5000000e-02, 4.3000000e-04
1786, 2.7500000e-01, 2.5000000e-02, 4.3000000e-04
1787, 2.8750000e-01, 2.5000000e-02, 4.3000000e-04
1788, 3.0000000e-01, 2.5000000e-02, 4.3000000e-04
1789, 3.1250000e-01, 2.5000000e-02, 4.3000000e-04
1790, 3.2500000e-01, 2.5000000e-02, 4.3000000e-04
1791, 3.3750000e-01, 2.5000000e-02, 4.3000000e-04
1792, 3.5000000e-01, 2.5000000e-02, 4.3000000e-04
1793, 3.6250000e-01, 2.5000000e-02, 4.3000000e-04
1794, 3.7500000e-01, 2.5000000e-02, 4.3000000e-04
1795, 3.8750000e-01, 2.5000000e-02, 4.3000000e-04
1796, 4.0000000e-01, 2.5000000e-02, 4.3000000e-04
1797, 4.1250000e-01, 2.5000000e-02, 4.3000000e-04
1798, 4.2500000e-01, 2.5000000e-02, 4.3000000e-04
1799, 4.3750000e-01, 2.5000000e-02, 4.3000000e-04
1800, 4.5000000e-01, 2.5000000e-02, 4.3000000e-04
1801, 4.6250000e-01, 2.5000000e-02, 4.3000000e-04
1802, 4.7500000e-01, 2.5000000e-02, 4.3000000e-04
1803, 4.8750000e-01, 2.5000000e-02, 4.3000000e-04
1804, 5.0000000e-01, 2.5000000e-02, 4.3000000e-04
1805, 0.0000000e+00, 3.7500000e-02, 4.3000000e-04
1806, 1.2500000e-02, 3.7500000e-02, 4.3000000e-04
1807, 2.5000000e-02, 3.7500000e-02, 4.3000000e-04
1808, 3.7500000e-02, 3.7500000e-02, 4.3000000e-04
1809, 5.0000000e-02, 3.7500000e-02, 4.3000000e-04
1810, 6.2500000e-02, 3.7500000e-02, 4.3000000e-04
1811, 7.5000000e-02, 3.7500000e-02, 4.3000000e-04
1812, 8.7500000e-02, 3.7500000e-02, 4.3000000e-04
1813, 1.0000000e-01, 3.7500000e-02, 4.3000000e-04
1814, 1.1250000e-01, 3.7500000e-02, 4.3000000e-04
1815, 1.2500000e-01, 3.7500000e-02, 4.3000000e-04
1816, 1.3750000e-01, 3.7500000e-02, 4.3000000e-04
1817, 1.5000000e-01, 3.7500000e-02, 4.3000000e-04
1818, 1.6250000e-01, 3.7500000e-02, 4.3000000e-04
1819, 1.7500000e-01, 3.7500000e-02, 4.3000000e-04
1820, 1.8750000e-01, 3.7500000e-02, 4.3000000e-04
1821, 2.0000000e-01, 3.7500000e-02, 4.3000000e-04
1822, 2.1250000e-01, 3.7500000e-02, 4.3000000e-04
1823, 2.2500000e-01, 3.7500000e-02, 4.3000000e-04
1824, 2.3750000e-01, 3.7500000e-02, 4.3000000e-04
1825, 2.5000000e-01, 3.7500000e-02, 4.3000000e-04
1826, 2.6250000e-01, 3.7500000e-02, 4.3000000e-04
1827, 2.7500000e-01, 3.7500000e-02, 4.3000000e-04
1828, 2.8750000e-01, 3.7500000e-02, 4.3000000e-04
1829, 3.0000000e-01, 3.7500000e-02, 4.3000000e-04
1830, 3.1250000e-01, 3.7500000e-02, 4.3000000e-04
1831, 3.2500000e-01, 3.7500000e-02, 4.3000000e-04
1832, 3.3750000e-01, 3.7500000e-02, 4.3000000e-04
1833, 3.5000000e-01, 3.7500000e-02, 4.3000000e-04
1834, 3.6250000e-01, 3.7500000e-02, 4.3000000e-04
1835, 3.7500000e-01, 3.7500000e-02, 4.3000000e-04
1836, 3.8750000e-01, 3.7500000e-02, 4.3000000e-04
1837, 4.0000000e-01, 3.7500000e-02, 4.3000000e-04
1838, 4.1250000e-01, 3.7500000e-02, 4.3000000e-04
1839, 4.2500000e-01, 3.7500000e-02, 4.3000000e-04
1840, 4.3750000e-01, 3.7500000e-02, 4.3000000e-04
1841, 4.5000000e-01, 3.7500000e-02, 4.3000000e-04
1842, 4.6250000e-01, 3.7500000e-02, 4.3000000e-04
1843, 4.7500000e-01, 3.7500000e-02, 4.3000000e-04
1844, 4.8750000e-01, 3.7500000e-02, 4.3000000e-04
1845, 5.0000000e-01, 3.7500000e-02, 4.3000000e-04
1846, 0.0000000e+00, 5.0000000e-02, 4.3000000e-04
1847, 1.2500000e-02, 5.0000000e-02, 4.3000000e-04
1848, 2.5000000e-02, 5.0000000e-02, 4.3000000e-04
1849, 3.7500000e-02, 5.0000000e-02, 4.3000000e-04
1850, 5.0000000e-02, 5.0000000e-02, 4.3000000e-04
1851, 6.2500000e-02, 5.0000000e-02, 4.3000000e-04
1852, 7.5000000e-02, 5.0000000e-02, 4.3000000e-04
1853, 8.7500000e-02, 5.0000000e-02, 4.3000000e-04
1854, 1.0000000e-01, 5.0000000e-02, 4.3000000e-04
1855, 1.1250000e-01, 5.0000000e-02, 4.3000000e-04
1856, 1.2500000e-01, 5.0000000e-02, 4.3000000e-04
1857, 1.3750000e-01, 5.0000000e-02, 4.3000000e-04
1858, 1.5000000e-01, 5.0000000e-02, 4.3000000e-04
1859, 1.6250000e-01, 5.0000000e-02, 4.3000000e-04
1860, 1.7500000e-01, 5.0000000e-02, 4.3000000e-04
1861, 1.8750000e-01, 5.0000000e-02, 4.3000000e-04
1862, 2.0000000e-01, 5.0000000e-02, 4.3000000e-04
1863, 2.1250000e-01, 5.0000000e-02, 4.3000000e-04
1864, 2.2500000e-01, 5.0000000e-02, 4.3000000e-04
1865, 2.3750000e-01, 5.0000000e-02, 4.3000000e-04
1866, 2.5000000e-01, 5.0000000e-02, 4.3000000e-04
1867, 2.6250000e-01, 5.0000000e-02, 4.3000000e-04
1868, 2.7500000e-01, 5.0000000e-02, 4.3000000e-04
1869, 2.8750000e-01, 5.0000000e-02, 4.3000000e-04
1870, 3.0000000e-01, 5.0000000e-02, 4.3000000e-04
1871, 3.1250000e-01, 5.0000000e-02, 4.3000000e-04
1872, 3.2500000e-01, 5.0000000e-02, 4.3000000e-04
1873, 3.3750000e-01, 5.0000000e-02, 4.3000000e-04
1874, 3.5000000e-01, 5.0000000e-02, 4.3000000e-04
1875, 3.6250000e-01, 5.0000000e-02, 4.3000000e-04
1876, 3.7500000e-01, 5.0000000e-02, 4.3000000e-04
1877, 3.8750000e-01, 5.0000000e-02, 4.3000000e-04
1878, 4.0000000e-01, 5.0000000e-02, 4.3000000e-04
1879, 4.1250000e-01, 5.0000000e-02, 4.3000000e-04
1880, 4.2500000e-01, 5.0000000e-02, 4.3000000e-04
1881, 4.3750000e-01, 5.0000000e-02, 4.3000000e-04
1882, 4.5000000e-01, 5.0000000e-02, 4.3000000e-04
1883, 4.6250000e-01, 5.0000000e-02, 4.3000000e-04
1884, 4.7500000e-01, 5.0000000e-02, 4.3000000e-04
1885, 4.8750000e-01, 5.0000000e-02, 4.3000000e-04
1886, 5.0000000e-01, 5.0000000e-02, 4.3000000e-04
1887, 0.0000000e+00, 6.2500000e-02, 4.3000000e-04
1888, 1.2500000e-02, 6.2500000e-02, 4.3000000e-04
1889, 2.5000000e-02, 6.2500000e-02, 4.3000000e-04
1890, 3.7500000e-02, 6.2500000e-02, 4.3000000e-04
1891, 5.0000000e-02, 6.2500000e-02, 4.3000000e-04
1892, 6.2500000e-02, 6.2500000e-02, 4.3000000e-04
1893, 7.5000000e-02, 6.2500000e-02, 4.3000000e-04
1894, 8.7500000e-02, 6.2500000e-02, 4.3000000e-04
1895, 1.0000000e-01, 6.2500000e-02, 4.3000000e-04
1896, 1.1250000e-01, 6.2500000e-02, 4.3000000e-04
1897, 1.2500000e-01, 6.2500000e-02, 4.3000000e-04
1898, 1.3750000e-01, 6.2500000e-02, 4.3000000e-04
1899, 1.5000000e-01, 6.2500000e-02, 4.3000000e-04
1900, 1.6250000e-01, 6.2500000e-02, 4.3000000e-04
1901, 1.7500000e-01, 6.2500000e-02, 4.3000000e-04
1902, 1.8750000e-01, 6.2500000e-02, 4.3000000e-04
1903, 2.0000000e-01, 6.2500000e-02, 4.3000000e-04
1904, 2.1250000e-01, 6.2500000e-02, 4.3000000e-04
1905, 2.2500000e-01, 6.2500000e-02, 4.3000000e-04
1906, 2.3750000e-01, 6.2500000e-02, 4.3000000e-04
1907, 2.5000000e-01, 6.2500000e-02, 4.3000000e-04
1908, 2.6250000e-01, 6.2500000e-02, 4.3000000e-04
1909, 2.7500000e-01, 6.2500000e-02, 4.3000000e-04
1910, 2.8750000e-01, 6.2500000e-02, 4.3000000e-04
1911, 3.0000000e-01, 6.2500000e-02, 4.3000000e-04
1912, 3.1250000e-01, 6.2500000e-02, 4.3000000e-04
1913, 3.2500000e-01, 6.2500000e-02, 4.3000000e-04
1914, 3.3750000e-01, 6.2500000e-02, 4.3000000e-04
1915, 3.5000000e-01, 6.2500000e-02, 4.3000000e-04
1916, 3.6250000e-01, 6.2500000e-02, 4.3000000e-04
1917, 3.7500000e-01, 6.2500000e-02, 4.3000000e-04
1918, 3.8750000e-01, 6.2500000e-02, 4.3000000e-04
1919, 4.0000000e-01, 6.2500000e-02, 4.3000000e-04
1920, 4.1250000e-01, 6.2500000e-02, 4.3000000e-04
1921, 4.2500000e-01, 6.2500000e-02, 4.3000000e-04
1922, 4.3750000e-01, 6.2500000e-02, 4.3000000e-04
1923, 4.5000000e-01, 6.2500000e-02, 4.3000000e-04
1924, 4.6250000e-01, 6.2500000e-02, 4.3000000e-04
1925, 4.7500000e-01, 6.2500000e-02, 4.3000000e-04
1926, 4.8750000e-01, 6.2500000e-02, 4.3000000e-04
1927, 5.0000000e-01, 6.2500000e-02, 4.3000000e-04
1928, 0.0000000e+00, 7.5000000e-02, 4.3000000e-04
1929, 1.2500000e-02, 7.5000000e-02, 4.3000000e-04
1930, 2.5000000e-02, 7.5000000e-02, 4.3000000e-04
1931, 3.7500000e-02, 7.5000000e-02, 4.3000000e-04
1932, 5.0000000e-02, 7.5000000e-02, 4.3000000e-04
1933, 6.2500000e-02, 7.5000000e-02, 4.3000000e-04
1934, 7.5000000e-02, 7.5000000e-02, 4.3000000e-04
1935, 8.7500000e-02, 7.5000000e-02, 4.3000000e-04
1936, 1.0000000e-01, 7.5000000e-02, 4.3000000e-04
1937, 1.1250000e-01, 7.5000000e-02, 4.3000000e-04
1938, 1.2500000e-01, 7.5000000e-02, 4.3000000e-04
1939, 1.3750000e-01, 7.5000000e-02, 4.3000000e-04
1940, 1.5000000e-01, 7.5000000e-02, 4.3000000e-04
1941, 1.6250000e-01, 7.5000000e-02, 4.3000000e-04
1942, 1.7500000e-01, 7.5000000e-02, 4.3000000e-04
1943, 1.8750000e-01, 7.5000000e-02, 4.3000000e-04
1944, 2.0000000e-01, 7.5000000e-02, 4.3000000e-04
1945, 2.1250000e-01, 7.5000000e-02, 4.3000000e-04
1946, 2.2500000e-01, 7.5000000e-02, 4.3000000e-04
1947, 2.3750000e-01, 7.5000000e-02, 4.3000000e-04
1948, 2.5000000e-01, 7.5000000e-02, 4.3000000e-04
1949, 2.6250000e-01, 7.5000000e-02, 4.3000000e-04
1950, 2.7500000e-01, 7.5000000e-02, 4.3000000e-04
1951, 2.8750000e-01, 7.5000000e-02, 4.3000000e-04
1952, 3.0000000e-01, 7.5000000e-02, 4.3000000e-04
1953, 3.1250000e-01, 7.5000000e-02, 4.3000000e-04
1954, 3.2500000e-01, 7.5000000e-02, 4.3000000e-04
1955, 3.3750000e-01, 7.5000000e-02, 4.3000000e-04
1956, 3.5000000e-01, 7.5000000e-02, 4.3000000e-04
1957, 3.6250000e-01, 7.5000000e-02, 4.3000000e-04
1958, 3.7500000e-01, 7.5000000e-02, 4.3000000e-04
1959, 3.8750000e-01, 7.5000000e-02, 4.3000000e-04
1960, 4.0000000e-01, 7.5000000e-02, 4.3000000e-04
1961, 4.1250000e-01, 7.5000000e-02, 4.3000000e-04
1962, 4.2500000e-01, 7.5000000e-02, 4.3000000e-04
1963, 4.3750000e-01, 7.5000000e-02, 4.3000000e-04
1964, 4.5000000e-01, 7.5000000e-02, 4.3000000e-04
1965, 4.6250000e-01, 7.5000000e-02, 4.3000000e-04
1966, 4.7500000e-01, 7.5000000e-02, 4.3000000e-04
1967, 4.8750000e-01, 7.5000000e-02, 4.3000000e-04
1968, 5.0000000e-01, 7.5000000e-02, 4.3000000e-04
1969, 0.0000000e+00, 8.7500000e-02, 4.3000000e-04
1970, 1.2500000e-02, 8.7500000e-02, 4.3000000e-04
1971, 2.5000000e-02, 8.7500000e-02, 4.3000000e-04
1972, 3.7500000e-02, 8.7500000e-02, 4.3000000e-04
1973, 5.0000000e-02, 8.7500000e-02, 4.3000000e-04
1974, 6.2500000e-02, 8.7500000e-02, 4.3000000e-04
1975, 7.5000000e-02, 8.7500000e-02, 4.3000000e-04
1976, 8.7500000e-02, 8.7500000e-02, 4.3000000e-04
1977, 1.0000000e-01, 8.7500000e-02, 4.3000000e-04
1978, 1.1250000e-01, 8.7500000e-02, 4.3000000e-04
1979, 1.2500000e-01, 8.7500000e-02, 4.3000000e-04
1980, 1.3750000e-01, 8.7500000e-02, 4.3000000e-04
1981, 1.5000000e-01, 8.7500000e-02, 4.3000000e-04
1982, 1.6250000e-01, 8.7500000e-02, 4.3000000e-04
1983, 1.7500000e-01, 8.7500000e-02, 4.3000000e-04
1984, 1.8750000e-01, 8.7500000e-02, 4.3000000e-04
1985, 2.0000000e-01, 8.7500000e-02, 4.3000000e-04
1986, 2.1250000e-01, 8.7500000e-02, 4.3000000e-04
1987, 2.2500000e-01, 8.7500000e-02, 4.3000000e-04
1988, 2.3750000e-01, 8.7500000e-02, 4.3000000e-04
1989, 2.5000000e-01, 8.7500000e-02, 4.3000000e-04
1990, 2.6250000e-01, 8.7500000e-02, 4.3000000e-04
1991, 2.7500000e-01, 8.7500000e-02, 4.3000000e-04
1992, 2.8750000e-01, 8.7500000e-02, 4.3000000e-04
1993, 3.0000000e-01, 8.7500000e-02, 4.3000000e-04
1994, 3.1250000e-01, 8.7500000e-02, 4.3000000e-04
1995, 3.2500000e-01, 8.7500000e-02, 4.3000000e-04
1996, 3.3750000e-01, 8.7500000e-02, 4.3000000e-04
1997, 3.5000000e-01, 8.7500000e-02, 4.3000000e-04
1998, 3.6250000e-01, 8.7500000e-02, 4.3000000e-04
1999, 3.7500000e-01, 8.7500000e-02, 4.3000000e-04
2000, 3.8750000e-01, 8.7500000e-02, 4.3000000e-04
2001, 4.0000000e-01, 8.7500000e-02, 4.3000000e-04
2002, 4.1250000e-01, 8.7500000e-02, 4.3000000e-04
2003, 4.2500000e-01, 8.7500000e-02, 4.3000000e-04
2004, 4.3750000e-01, 8.7500000e-02, 4.3000000e-04
2005, 4.5000000e-01, 8.7500000e-02, 4.3000000e-04
2006, 4.6250000e-01, 8.7500000e-02, 4.3000000e-04
2007, 4.7500000e-01, 8.7500000e-02, 4.3000000e-04
2008, 4.8750000e-01, 8.7500000e-02, 4.3000000e-04
2009, 5.0000000e-01, 8.7500000e-02, 4.3000000e-04
2010, 0.0000000e+00, 1.0000000e-01, 4.3000000e-04
2011, 1.2500000e-02, 1.0000000e-01, 4.3000000e-04
2012, 2.5000000e-02, 1.0000000e-01, 4.3000000e-04
2013, 3.7500000e-02, 1.0000000e-01, 4.3000000e-04
2014, 5.0000000e-02, 1.0000000e-01, 4.3000000e-04
2015, 6.2500000e-02, 1.0000000e-01, 4.3000000e-04
2016, 7.5000000e-02, 1.0000000e-01, 4.3000000e-04
2017, 8.7500000e-02, 1.0000000e-01, 4.3000000e-04
2018, 1.0000000e-01, 1.0000000e-01, 4.3000000e-04
2019, 1.1250000e-01, 1.0000000e-01, 4.3000000e-04
2020, 1.2500000e-01, 1.0000000e-01, 4.3000000e-04
2021, 1.3750000e-01, 1.0000000e-01, 4.3000000e-04
2022, 1.5000000e-01, 1.0000000e-01, 4.3000000e-04
2023, 1.6250000e-01, 1.0000000e-01, 4.3000000e-04
2024, 1.7500000e-01, 1.0000000e-01, 4.3000000e-04
2025, 1.8750000e-01, 1.0000000e-01, 4.3000000e-04
2026, 2.0000000e-01, 1.0000000e-01, 4.3000000e-04
2027, 2.1250000e-01, 1.0000000e-01, 4.3000000e-04
2028, 2.2500000e-01, 1.0000000e-01, 4.3000000e-04
2029, 2.3750000e-01, 1.0000000e-01, 4.3000000e-04
2030, 2.5000000e-01, 1.0000000e-01, 4.3000000e-04
2031, 2.6250000e-01, 1.0000000e-01, 4.3000000e-04
2032, 2.7500000e-01, 1.0000000e-01, 4.3000000e-04
2033, 2.8750000e-01, 1.0000000e-01, 4.3000000e-04
2034, 3.0000000e-01, 1.0000000e-01, 4.3000000e-04
2035, 3.1250000e-01, 1.0000000e-01, 4.3000000e-04
2036, 3.2500000e-01, 1.0000000e-01, 4.3000000e-04
2037, 3.3750000e-01, 1.0000000e-01, 4.3000000e-04
2038, 3.5000000e-01, 1.0000000e-01, 4.3000000e-04
2039, 3.6250000e-01, 1.0000000e-01, 4.3000000e-04
2040, 3.7500000e-01, 1.0000000e-01, 4.3000000e-04
2041, 3.8750000e-01, 1.0000000e-01, 4.3000000e-04
2042, 4.0000000e-01, 1.0000000e-01, 4.3000000e-04
2043, 4.1250000e-01, 1.0000000e-01, 4.3000000e-04
2044, 4.2500000e-01, 1.0000000e-01, 4.3000000e-04
2045, 4.3750000e-01, 1.0000000e-01, 4.3000000e-04
2046, 4.5000000e-01, 1.0000000e-01, 4.3000000e-04
2047, 4.6250000e-01, 1.0000000e-01, 4.3000000e-04
2048, 4.7500000e-01, 1.0000000e-01, 4.3000000e-04
2049, 4.8750000e-01, 1.0000000e-01, 4.3000000e-04
2050, 5.0000000e-01, 1.0000000e-01, 4.3000000e-04
2051, 0.0000000e+00, 1.1250000e-01, 4.3000000e-04
2052, 1.2500000e-02, 1.1250000e-01, 4.3000000e-04
2053, 2.5000000e-02, 1.1250000e-01, 4.3000000e-04
2054, 3.7500000e-02, 1.1250000e-01, 4.3000000e-04
2055, 5.0000000e-02, 1.1250000e-01, 4.3000000e-04
2056, 6.2500000e-02, 1.1250000e-01, 4.3000000e-04
2057, 7.5000000e-02, 1.1250000e-01, 4.3000000e-04
2058, 8.7500000e-02, 1.1250000e-01, 4.3000000e-04
2059, 1.0000000e-01, 1.1250000e-01, 4.3000000e-04
2060, 1.1250000e-01, 1.1250000e-01, 4.3000000e-04
2061, 1.2500000e-01, 1.1250000e-01, 4.3000000e-04
2062, 1.3750000e-01, 1.1250000e-01, 4.3000000e-04
2063, 1.5000000e-01, 1.1250000e-01, 4.3000000e-04
2064, 1.6250000e-01, 1.1250000e-01, 4.3000000e-04
2065, 1.7500000e-01, 1.1250000e-01, 4.3000000e-04
2066, 1.8750000e-01, 1.1250000e-01, 4.3000000e-04
2067, 2.0000000e-01, 1.1250000e-01, 4.3000000e-04
2068, 2.1250000e-01, 1.1250000e-01, 4.3000000e-04
2069, 2.2500000e-01, 1.1250000e-01, 4.3000000e-04
2070, 2.3750000e-01, 1.1250000e-01, 4.3000000e-04
2071, 2.5000000e-01, 1.1250000e-01, 4.3000000e-04
2072, 2.6250000e-01, 1.1250000e-01, 4.3000000e-04
2073, 2.7500000e-01, 1.1250000e-01, 4.3000000e-04
2074, 2.8750000e-01, 1.1250000e-01, 4.3000000e-04
2075, 3.0000000e-01, 1.1250000e-01, 4.3000000e-04
2076, 3.1250000e-01, 1.1250000e-01, 4.3000000e-04
2077, 3.2500000e-01, 1.1250000e-01, 4.3000000e-04
2078, 3.3750000e-01, 1.1250000e-01, 4.3000000e-04
2079, 3.5000000e-01, 1.1250000e-01, 4.3000000e-04
2080, 3.6250000e-01, 1.1250000e-01, 4.3000000e-04
2081, 3.7500000e-01, 1.1250000e-01, 4.3000000e-04
2082, 3.8750000e-01, 1.1250000e-01, 4.3000000e-04
2083, 4.0000000e-01, 1.1250000e-01, 4.3000000e-04
2084, 4.1250000e-01, 1.1250000e-01, 4.3000000e-04
2085, 4.2500000e-01, 1.1250000e-01, 4.3000000e-04
2086, 4.3750000e-01, 1.1250000e-01, 4.3000000e-04
2087, 4.5000000e-01, 1.1250000e-01, 4.3000000e-04
2088, 4.6250000e-01, 1.1250000e-01, 4.3000000e-04
2089, 4.7500000e-01, 1.1250000e-01, 4.3000000e-04
2090, 4.8750000e-01, 1.1250000e-01, 4.3000000e-04
2091, 5.0000000e-01, 1.1250000e-01, 4.3000000e-04
2092, 0.0000000e+00, 1.2500000e-01, 4.3000000e-04
2093, 1.2500000e-02, 1.2500000e-01, 4.3000000e-04
2094, 2.5000000e-02, 1.2500000e-01, 4.3000000e-04
2095, 3.7500000e-02, 1.2500000e-01, 4.3000000e-04
2096, 5.0000000e-02, 1.2500000e-01, 4.3000000e-04
2097, 6.2500000e-02, 1.2500000e-01, 4.3000000e-04
2098, 7.5000000e-02, 1.2500000e-01, 4.3000000e-04
2099, 8.7500000e-02, 1.2500000e-01, 4.3000000e-04
2100, 1.0000000e-01, 1.2500000e-01, 4.3000000e-04
2101, 1.1250000e-01, 1.2500000e-01, 4.3000000e-04
2102, 1.2500000e-01, 1.2500000e-01, 4.3000000e-04
2103, 1.3750000e-01, 1.2500000e-01, 4.3000000e-04
2104, 1.5000000e-01, 1.2500000e-01, 4.3000000e-04
2105, 1.6250000e-01, 1.2500000e-01, 4.3000000e-04
2106, 1.7500000e-01, 1.2500000e-01, 4.3000000e-04
2107, 1.8750000e-01, 1.2500000e-01, 4.3000000e-04
2108, 2.0000000e-01, 1.2500000e-01, 4.3000000e-04
2109, 2.1250000e-01, 1.2500000e-01, 4.3000000e-04
2110, 2.2500000e-01, 1.2500000e-01, 4.3000000e-04
2111, 2.3750000e-01, 1.2500000e-01, 4.3000000e-04
2112, 2.5000000e-01, 1.2500000e-01, 4.3000000e-04
2113, 2.6250000e-01, 1.2500000e-01, 4.3000000e-04
2114, 2.7500000e-01, 1.2500000e-01, 4.3000000e-04
2115, 2.8750000e-01, 1.2500000e-01, 4.3000000e-04
2116, 3.0000000e-01, 1.2500000e-01, 4.3000000e-04
2117, 3.1250000e-01, 1.2500000e-01, 4.3000000e-04
2118, 3.2500000e-01, 1.2500000e-01, 4.3000000e-04
2119, 3.3750000e-01, 1.2500000e-01, 4.3000000e-04
2120, 3.5000000e-01, 1.2500000e-01, 4.3000000e-04
2121, 3.6250000e-01, 1.2500000e-01, 4.3000000e-04
2122, 3.7500000e-01, 1.2500000e-01, 4.3000000e-04
2123, 3.8750000e-01, 1.2500000e-01, 4.3000000e-04
2124, 4.0000000e-01, 1.2500000e-01, 4.3000000e-04
2125, 4.1250000e-01, 1.2500000e-01, 4.3000000e-04
2126, 4.2500000e-01, 1.2500000e-01, 4.3000000e-04
2127, 4.3750000e-01, 1.2500000e-01, 4.3000000e-04
2128, 4.5000000e-01, 1.2500000e-01, 4.3000000e-04
2129, 4.6250000e-01, 1.2500000e-01, 4.3000000e-04
2130, 4.7500000e-01, 1.2500000e-01, 4.3000000e-04
2131, 4.8750000e-01, 1.2500000e-01, 4.3000000e-04
2132, 5.0000000e-01, 1.2500000e-01, 4.3000000e-04
2133, 0.0000000e+00, 1.3750000e-01, 4.3000000e-04
2134, 1.2500000e-02, 1.3750000e-01, 4.3000000e-04
2135, 2.5000000e-02, 1.3750000e-01, 4.3000000e-04
2136, 3.7500000e-02, 1.3750000e-01, 4.3000000e-04
2137, 5.0000000e-02, 1.3750000e-01, 4.3000000e-04
2138, 6.2500000e-02, 1.3750000e-01, 4.3000000e-04
2139, 7.5000000e-02, 1.3750000e-01, 4.3000000e-04
2140, 8.7500000e-02, 1.3750000e-01, 4.3000000e-04
2141, 1.0000000e-01, 1.3750000e-01, 4.3000000e-04
2142, 1.1250000e-01, 1.3750000e-01, 4.3000000e-04
2143, 1.2500000e-01, 1.3750000e-01, 4.3000000e-04
2144, 1.3750000e-01, 1.3750000e-01, 4.3000000e-04
2145, 1.5000000e-01, 1.3750000e-01, 4.3000000e-04
2146, 1.6250000e-01, 1.3750000e-01, 4.3000000e-04
2147, 1.7500000e-01, 1.3750000e-01, 4.3000000e-04
2148, 1.8750000e-01, 1.3750000e-01, 4.3000000e-04
2149, 2.0000000e-01, 1.3750000e-01, 4.3000000e-04
2150, 2.1250000e-01, 1.3750000e-01, 4.3000000e-04
2151, 2.2500000e-01, 1.3750000e-01, 4.3000000e-04
2152, 2.3750000e-01, 1.3750000e-01, 4.3000000e-04
2153, 2.5000000e-01, 1.3750000e-01, 4.3000000e-04
2154, 2.6250000e-01, 1.3750000e-01, 4.3000000e-04
2155, 2.7500000e-01, 1.3750000e-01, 4.3000000e-04
2156, 2.8750000e-01, 1.3750000e-01, 4.3000000e-04
2157, 3.0000000e-01, 1.3750000e-01, 4.3000000e-04
2158, 3.1250000e-01, 1.3750000e-01, 4.3000000e-04
2159, 3.2500000e-01, 1.3750000e-01, 4.3000000e-04
2160, 3.3750000e-01, 1.3750000e-01, 4.3000000e-04
2161, 3.5000000e-01, 1.3750000e-01, 4.3000000e-04
2162, 3.6250000e-01, 1.3750000e-01, 4.3000000e-04
2163, 3.7500000e-01, 1.3750000e-01, 4.3000000e-04
2164, 3.8750000e-01, 1.3750000e-01, 4.3000000e-04
2165, 4.0000000e-01, 1.3750000e-01, 4.3000000e-04
2166, 4.1250000e-01, 1.3750000e-01, 4.3000000e-04
2167, 4.2500000e-01, 1.3750000e-01, 4.3000000e-04
2168, 4.3750000e-01, 1.3750000e-01, 4.3000000e-04
2169, 4.5000000e-01, 1.3750000e-01, 4.3000000e-04
2170, 4.6250000e-01, 1.3750000e-01, 4.3000000e-04
2171, 4.7500000e-01, 1.3750000e-01, 4.3000000e-04
2172, 4.8750000e-01, 1.3750000e-01, 4.3000000e-04
2173, 5.0000000e-01, 1.3750000e-01, 4.3000000e-04
2174, 0.0000000e+00, 1.5000000e-01, 4.3000000e-04
2175, 1.2500000e-02, 1.5000000e-01, 4.3000000e-04
2176, 2.5000000e-02, 1.5000000e-01, 4.3000000e-04
2177, 3.7500000e-02, 1.5000000e-01, 4.3000000e-04
2178, 5.0000000e-02, 1.5000000e-01, 4.3000000e-04
2179, 6.2500000e-02, 1.5000000e-01, 4.3000000e-04
2180, 7.5000000e-02, 1.5000000e-01, 4.3000000e-04
2181, 8.7500000e-02, 1.5000000e-01, 4.3000000e-04
2182, 1.0000000e-01, 1.5000000e-01, 4.3000000e-04
2183, 1.1250000e-01, 1.5000000e-01, 4.3000000e-04
2184, 1.2500000e-01, 1.5000000e-01, 4.3000000e-04
2185, 1.3750000e-01, 1.5000000e-01, 4.3000000e-04
2186, 1.5000000e-01, 1.5000000e-01, 4.3000000e-04
2187, 1.6250000e-01, 1.5000000e-01, 4.3000000e-04
2188, 1.7500000e-01, 1.5000000e-01, 4.3000000e-04
2189, 1.8750000e-01, 1.5000000e-01, 4.3000000e-04
2190, 2.0000000e-01, 1.5000000e-01, 4.3000000e-04
2191, 2.1250000e-01, 1.5000000e-01, 4.3000000e-04
2192, 2.2500000e-01, 1.5000000e-01, 4.3000000e-04
2193, 2.3750000e-01, 1.5000000e-01, 4.3000000e-04
2194, 2.5000000e-01, 1.5000000e-01, 4.3000000e-04
2195, 2.6250000e-01, 1.5000000e-01, 4.3000000e-04
2196, 2.7500000e-01, 1.5000000e-01, 4.3000000e-04
2197, 2.8750000e-01, 1.5000000e-01, 4.3000000e-04
2198, 3.0000000e-01, 1.5000000e-01, 4.3000000e-04
2199, 3.1250000e-01, 1.5000000e-01, 4.3000000e-04
2200, 3.2500000e-01, 1.5000000e-01, 4.3000000e-04
2201, 3.3750000e-01, 1.5000000e-01, 4.3000000e-04
2202, 3.5000000e-01, 1.5000000e-01, 4.3000000e-04
2203, 3.6250000e-01, 1.5000000e-01, 4.3000000e-04
2204, 3.7500000e-01, 1.5000000e-01, 4.3000000e-04
2205, 3.8750000e-01, 1.5000000e-01, 4.3000000e-04
2206, 4.0000000e-01, 1.5000000e-01, 4.3000000e-04
2207, 4.1250000e-01, 1.5000000e-01, 4.3000000e-04
2208, 4.2500000e-01, 1.5000000e-01, 4.3000000e-04
2209, 4.3750000e-01, 1.5000000e-01, 4.3000000e-04
2210, 4.5000000e-01, 1.5000000e-01, 4.3000000e-04
2211, 4.6250000e-01, 1.5000000e-01, 4.3000000e-04
2212, 4.7500000e-01, 1.5000000e-01, 4.3000000e-04
2213, 4.8750000e-01, 1.5000000e-01, 4.3000000e-04
2214, 5.0000000e-01, 1.5000000e-01, 4.3000000e-04
2215, 0.0000000e+00, 1.6250000e-01, 4.3000000e-04
2216, 1.2500000e-02, 1.6250000e-01, 4.3000000e-04
2217, 2.5000000e-02, 1.6250000e-01, 4.3000000e-04
2218, 3.7500000e-02, 1.6250000e-01, 4.3000000e-04
2219, 5.0000000e-02, 1.6250000e-01, 4.3000000e-04
2220, 6.2500000e-02, 1.6250000e-01, 4.3000000e-04
2221, 7.5000000e-02, 1.6250000e-01, 4.3000000e-04
2222, 8.7500000e-02, 1.6250000e-01, 4.3000000e-04
2223, 1.0000000e-01, 1.6250000e-01, 4.3000000e-04
2224, 1.1250000e-01, 1.6250000e-01, 4.3000000e-04
2225, 1.2500000e-01, 1.6250000e-01, 4.3000000e-04
2226, 1.3750000e-01, 1.6250000e-01, 4.3000000e-04
2227, 1.5000000e-01, 1.6250000e-01, 4.3000000e-04
2228, 1.6250000e-01, 1.6250000e-01, 4.3000000e-04
2229, 1.7500000e-01, 1.6250000e-01, 4.3000000e-04
2230, 1.8750000e-01, 1.6250000e-01, 4.3000000e-04
2231, 2.0000000e-01, 1.6250000e-01, 4.3000000e-04
2232, 2.1250000e-01, 1.6250000e-01, 4.3000000e-04
2233, 2.2500000e-01, 1.6250000e-01, 4.3000000e-04
2234, 2.3750000e-01, 1.6250000e-01, 4.3000000e-04
2235, 2.5000000e-01, 1.6250000e-01, 4.3000000e-04
2236, 2.6250000e-01, 1.6250000e-01, 4.3000000e-04
2237, 2.7500000e-01, 1.6250000e-01, 4.3000000e-04
2238, 2.8750000e-01, 1.6250000e-01, 4.3000000e-04
2239, 3.0000000e-01, 1.6250000e-01, 4.3000000e-04
2240, 3.1250000e-01, 1.6250000e-01, 4.3000000e-04
2241, 3.2500000e-01, 1.6250000e-01, 4.3000000e-04
2242, 3.3750000e-01, 1.6250000e-01, 4.3000000e-04
2243, 3.5000000e-01, 1.6250000e-01, 4.3000000e-04
2244, 3.6250000e-01, 1.6250000e-01, 4.3000000e-04
2245, 3.7500000e-01, 1.6250000e-01, 4.3000000e-04
2246, 3.8750000e-01, 1.6250000e-01, 4.3000000e-04
2247, 4.0000000e-01, 1.6250000e-01, 4.3000000e-04
2248, 4.1250000e-01, 1.6250000e-01, 4.3000000e-04
2249, 4.2500000e-01, 1.6250000e-01, 4.3000000e-04
2250, 4.3750000e-01, 1.6250000e-01, 4.3000000e-04
2251, 4.5000000e-01, 1.6250000e-01, 4.3000000e-04
2252, 4.6250000e-01, 1.6250000e-01, 4.3000000e-04
2253, 4.7500000e-01, 1.6250000e-01, 4.3000000e-04
2254, 4.8750000e-01, 1.6250000e-01, 4.3000000e-04
2255, 5.0000000e-01, 1.6250000e-01, 4.3000000e-04
2256, 0.0000000e+00, 1.7500000e-01, 4.3000000e-04
2257, 1.2500000e-02, 1.7500000e-01, 4.3000000e-04
2258, 2.5000000e-02, 1.7500000e-01, 4.3000000e-04
2259, 3.7500000e-02, 1.7500000e-01, 4.3000000e-04
2260, 5.0000000e-02, 1.7500000e-01, 4.3000000e-04
2261, 6.2500000e-02, 1.7500000e-01, 4.3000000e-04
2262, 7.5000000e-02, 1.7500000e-01, 4.3000000e-04
2263, 8.7500000e-02, 1.7500000e-01, 4.3000000e-04
2264, 1.0000000e-01, 1.7500000e-01, 4.3000000e-04
2265, 1.1250000e-01, 1.7500000e-01, 4.3000000e-04
2266, 1.2500000e-01, 1.7500000e-01, 4.3000000e-04
2267, 1.3750000e-01, 1.7500000e-01, 4.3000000e-04
2268, 1.5000000e-01, 1.7500000e-01, 4.3000000e-04
2269, 1.6250000e-01, 1.7500000e-01, 4.3000000e-04
2270, 1.7500000e-01, 1.7500000e-01, 4.3000000e-04
2271, 1.8750000e-01, 1.7500000e-01, 4.3000000e-04
2272, 2.0000000e-01, 1.7500000e-01, 4.3000000e-04
2273, 2.1250000e-01, 1.7500000e-01, 4.3000000e-04
2274, 2.2500000e-01, 1.7500000e-01, 4.3000000e-04
2275, 2.3750000e-01, 1.7500000e-01, 4.3000000e-04
2276, 2.5000000e-01, 1.7500000e-01, 4.3000000e-04
2277, 2.6250000e-01, 1.7500000e-01, 4.3000000e-04
2278, 2.7500000e-01, 1.7500000e-01, 4.3000000e-04
2279, 2.8750000e-01, 1.7500000e-01, 4.3000000e-04
2280, 3.0000000e-01, 1.7500000e-01, 4.3000000e-04
2281, 3.1250000e-01, 1.7500000e-01, 4.3000000e-04
2282, 3.2500000e-01, 1.7500000e-01, 4.3000000e-04
2283, 3.3750000e-01, 1.7500000e-01, 4.3000000e-04
2284, 3.5000000e-01, 1.7500000e-01, 4.3000000e-04
2285, 3.6250000e-01, 1.7500000e-01, 4.3000000e-04
2286, 3.7500000e-01, 1.7500000e-01, 4.3000000e-04
2287, 3.8750000e-01, 1.7500000e-01, 4.3000000e-04
2288, 4.0000000e-01, 1.7500000e-01, 4.3000000e-04
2289, 4.1250000e-01, 1.7500000e-01, 4.3000000e-04
2290, 4.2500000e-01, 1.7500000e-01, 4.3000000e-04
2291, 4.3750000e-01, 1.7500000e-01, 4.3000000e-04
2292, 4.5000000e-01, 1.7500000e-01, 4.3000000e-04
2293, 4.6250000e-01, 1.7500000e-01, 4.3000000e-04
2294, 4.7500000e-01, 1.7500000e-01, 4.3000000e-04
2295, 4.8750000e-01, 1.7500000e-01, 4.3000000e-04
2296, 5.0000000e-01, 1.7500000e-01, 4.3000000e-04
2297, 0.0000000e+00, 1.8750000e-01, 4.3000000e-04
2298, 1.2500000e-02, 1.8750000e-01, 4.3000000e-04
2299, 2.5000000e-02, 1.8750000e-01, 4.3000000e-04
2300, 3.7500000e-02, 1.8750000e-01, 4.3000000e-04
2301, 5.0000000e-02, 1.8750000e-01, 4.3000000e-04
2302, 6.2500000e-02, 1.8750000e-01, 4.3000000e-04
2303, 7.5000000e-02, 1.8750000e-01, 4.3000000e-04
2304, 8.7500000e-02, 1.8750000e-01, 4.3000000e-04
2305, 1.0000000e-01, 1.8750000e-01, 4.3000000e-04
2306, 1.1250000e-01, 1.8750000e-01, 4.3000000e-04
2307, 1.2500000e-01, 1.8750000e-01, 4.3000000e-04
2308, 1.3750000e-01, 1.8750000e-01, 4.3000000e-04
2309, 1.5000000e-01, 1.8750000e-01, 4.3000000e-04
2310, 1.6250000e-01, 1.8750000e-01, 4.3000000e-04
2311, 1.7500000e-01, 1.8750000e-01, 4.3000000e-04
2312, 1.8750000e-01, 1.8750000e-01, 4.3000000e-04
2313, 2.0000000e-01, 1.8750000e-01, 4.3000000e-04
2314, 2.1250000e-01, 1.8750000e-01, 4.3000000e-04
2315, 2.2500000e-01, 1.8750000e-01, 4.3000000e-04
2316, 2.3750000e-01, 1.8750000e-01, 4.3000000e-04
2317, 2.5000000e-01, 1.8750000e-01, 4.3000000e-04
2318, 2.6250000e-01, 1.8750000e-01, 4.3000000e-04
2319, 2.7500000e-01, 1.8750000e-01, 4.3000000e-04
2320, 2.8750000e-01, 1.8750000e-01, 4.3000000e-04
2321, 3.0000000e-01, 1.8750000e-01, 4.3000000e-04
2322, 3.1250000e-01, 1.8750000e-01, 4.3000000e-04
2323, 3.2500000e-01, 1.8750000e-01, 4.3000000e-04
2324, 3.3750000e-01, 1.8750000e-01, 4.3000000e-04
2325, 3.5000000e-01, 1.8750000e-01, 4.3000000e-04
2326, 3.6250000e-01, 1.8750000e-01, 4.3000000e-04
2327, 3.7500000e-01, 1.8750000e-01, 4.3000000e-04
2328, 3.8750000e-01, 1.8750000e-01, 4.3000000e-04
2329, 4.0000000e-01, 1.8750000e-01, 4.3000000e-04
2330, 4.1250000e-01, 1.8750000e-01, 4.3000000e-04
2331, 4.2500000e-01, 1.8750000e-01, 4.3000000e-04
2332, 4.3750000e-01, 1.8750000e-01, 4.3000000e-04
2333, 4.5000000e-01, 1.8750000e-01, 4.3000000e-04
2334, 4.6250000e-01, 1.8750000e-01, 4.3000000e-04
2335, 4.7500000e-01, 1.8750000e-01, 4.3000000e-04
2336, 4.8750000e-01, 1.8750000e-01, 4.3000000e-04
2337, 5.0000000e-01, 1.8750000e-01, 4.3000000e-04
2338, 0.0000000e+00, 2.0000000e-01, 4.3000000e-04
2339, 1.2500000e-02, 2.0000000e-01, 4.3000000e-04
2340, 2.5000000e-02, 2.0000000e-01, 4.3000000e-04
2341, 3.7500000e-02, 2.0000000e-01, 4.3000000e-04
2342, 5.0000000e-02, 2.0000000e-01, 4.3000000e-04
2343, 6.2500000e-02, 2.0000000e-01, 4.3000000e-04
2344, 7.5000000e-02, 2.0000000e-01, 4.3000000e-04
2345, 8.7500000e-02, 2.0000000e-01, 4.3000000e-04
2346, 1.0000000e-01, 2.0000000e-01, 4.3000000e-04
2347, 1.1250000e-01, 2.0000000e-01, 4.3000000e-04
2348, 1.2500000e-01, 2.0000000e-01, 4.3000000e-04
2349, 1.3750000e-01, 2.0000000e-01, 4.3000000e-04
2350, 1.5000000e-01, 2.0000000e-01, 4.3000000e-04
2351, 1.6250000e-01, 2.0000000e-01, 4.3000000e-04
2352, 1.7500000e-01, 2.0000000e-01, 4.3000000e-04
2353, 1.8750000e-01, 2.0000000e-01, 4.3000000e-04
2354, 2.0000000e-01, 2.0000000e-01, 4.3000000e-04
2355, 2.1250000e-01, 2.0000000e-01, 4.3000000e-04
2356, 2.2500000e-01, 2.0000000e-01, 4.3000000e-04
2357, 2.3750000e-01, 2.0000000e-01, 4.3000000e-04
2358, 2.5000000e-01, 2.0000000e-01, 4.3000000e-04
2359, 2.6250000e-01, 2.0000000e-01, 4.3000000e-04
2360, 2.7500000e-01, 2.0000000e-01, 4.3000000e-04
2361, 2.8750000e-01, 2.0000000e-01, 4.3000000e-04
2362, 3.0000000e-01, 2.0000000e-01, 4.3000000e-04
2363, 3.1250000e-01, 2.0000000e-01, 4.3000000e-04
2364, 3.2500000e-01, 2.0000000e-01, 4.3000000e-04
2365, 3.3750000e-01, 2.0000000e-01, 4.3000000e-04
2366, 3.5000000e-01, 2.0000000e-01, 4.3000000e-04
2367, 3.6250000e-01, 2.0000000e-01, 4.3000000e-04
2368, 3.7500000e-01, 2.0000000e-01, 4.3000000e-04
2369, 3.8750000e-01, 2.0000000e-01, 4.3000000e-04
2370, 4.0000000e-01, 2.0000000e-01, 4.3000000e-04
2371, 4.1250000e-01, 2.0000000e-01, 4.3000000e-04
2372, 4.2500000e-01, 2.0000000e-01, 4.3000000e-04
2373, 4.3750000e-01, 2.0000000e-01, 4.3000000e-04
2374, 4.5000000e-01, 2.0000000e-01, 4.3000000e-04
2375, 4.6250000e-01, 2.0000000e-01, 4.3000000e-04
2376, 4.7500000e-01, 2.0000000e-01, 4.3000000e-04
2377, 4.8750000e-01, 2.0000000e-01, 4.3000000e-04
2378, 5.0000000e-01, 2.0000000e-01, 4.3000000e-04
2379, 0.0000000e+00, 2.1250000e-01, 4.3000000e-04
2380, 1.2500000e-02, 2.1250000e-01, 4.3000000e-04
2381, 2.5000000e-02, 2.1250000e-01, 4.3000000e-04
2382, 3.7500000e-02, 2.1250000e-01, 4.3000000e-04
2383, 5.0000000e-02, 2.1250000e-01, 4.3000000e-04
2384, 6.2500000e-02, 2.1250000e-01, 4.3000000e-04
2385, 7.5000000e-02, 2.1250000e-01, 4.3000000e-04
2386, 8.7500000e-02, 2.1250000e-01, 4.3000000e-04
2387, 1.0000000e-01, 2.1250000e-01, 4.3000000e-04
2388, 1.1250000e-01, 2.1250000e-01, 4.3000000e-04
2389, 1.2500000e-01, 2.1250000e-01, 4.3000000e-04
2390, 1.3750000e-01, 2.1250000e-01, 4.3000000e-04
2391, 1.5000000e-01, 2.1250000e-01, 4.3000000e-04
2392, 1.6250000e-01, 2.1250000e-01, 4.3000000e-04
2393, 1.7500000e-01, 2.1250000e-01, 4.3000000e-04
2394, 1.8750000e-01, 2.1250000e-01, 4.3000000e-04
2395, 2.0000000e-01, 2.1250000e-01, 4.3000000e-04
2396, 2.1250000e-01, 2.1250000e-01, 4.3000000e-04
2397, 2.2500000e-01, 2.1250000e-01, 4.3000000e-04
2398, 2.3750000e-01, 2.1250000e-01, 4.3000000e-04
2399, 2.5000000e-01, 2.1250000e-01, 4.3000000e-04
2400, 2.6250000e-01, 2.1250000e-01, 4.3000000e-04
2401, 2.7500000e-01, 2.1250000e-01, 4.3000000e-04
2402, 2.8750000e-01, 2.1250000e-01, 4.3000000e-04
2403, 3.0000000e-01, 2.1250000e-01, 4.3000000e-04
2404, 3.1250000e-01, 2.1250000e-01, 4.3000000e-04
2405, 3.2500000e-01, 2.1250000e-01, 4.3000000e-04
2406, 3.3750000e-01, 2.1250000e-01, 4.3000000e-04
2407, 3.5000000e-01, 2.1250000e-01, 4.3000000e-04
2408, 3.6250000e-01, 2.1250000e-01, 4.3000000e-04
2409, 3.7500000e-01, 2.1250000e-01, 4.3000000e-04
2410, 3.8750000e-01, 2.1250000e-01, 4.3000000e-04
2411, 4.0000000e-01, 2.1250000e-01, 4.3000000e-04
2412, 4.1250000e-01, 2.1250000e-01, 4.3000000e-04
2413, 4.2500000e-01, 2.1250000e-01, 4.3000000e-04
2414, 4.3750000e-01, 2.1250000e-01, 4.3000000e-04
2415, 4.5000000e-01, 2.1250000e-01, 4.3000000e-04
2416, 4.6250000e-01, 2.1250000e-01, 4.3000000e-04
2417, 4.7500000e-01, 2.1250000e-01, 4.3000000e-04
2418, 4.8750000e-01, 2.1250000e-01, 4.3000000e-04
2419, 5.0000000e-01, 2.1250000e-01, 4.3000000e-04
2420, 0.0000000e+00, 2.2500000e-01, 4.3000000e-04
2421, 1.2500000e-02, 2.2500000e-01, 4.3000000e-04
2422, 2.5000000e-02, 2.2500000e-01, 4.3000000e-04
2423, 3.7500000e-02, 2.2500000e-01, 4.3000000e-04
2424, 5.0000000e-02, 2.2500000e-01, 4.3000000e-04
2425, 6.2500000e-02, 2.2500000e-01, 4.3000000e-04
2426, 7.5000000e-02, 2.2500000e-01, 4.3000000e-04
2427, 8.7500000e-02, 2.2500000e-01, 4.3000000e-04
2428, 1.0000000e-01, 2.2500000e-01, 4.3000000e-04
2429, 1.1250000e-01, 2.2500000e-01, 4.3000000e-04
2430, 1.2500000e-01, 2.2500000e-01, 4.3000000e-04
2431, 1.3750000e-01, 2.2500000e-01, 4.3000000e-04
2432, 1.5000000e-01, 2.2500000e-01, 4.3000000e-04
2433, 1.6250000e-01, 2.2500000e-01, 4.3000000e-04
2434, 1.7500000e-01, 2.2500000e-01, 4.3000000e-04
2435, 1.8750000e-01, 2.2500000e-01, 4.3000000e-04
2436, 2.0000000e-01, 2.2500000e-01, 4.3000000e-04
2437, 2.1250000e-01, 2.2500000e-01, 4.3000000e-04
2438, 2.2500000e-01, 2.2500000e-01, 4.3000000e-04
2439, 2.3750000e-01, 2.2500000e-01, 4.3000000e-04
2440, 2.5000000e-01, 2.2500000e-01, 4.3000000e-04
2441, 2.6250000e-01, 2.2500000e-01, 4.3000000e-04
2442, 2.7500000e-01, 2.2500000e-01, 4.3000000e-04
2443, 2.8750000e-01, 2.2500000e-01, 4.3000000e-04
2444, 3.0000000e-01, 2.2500000e-01, 4.3000000e-04
2445, 3.1250000e-01, 2.2500000e-01, 4.3000000e-04
2446, 3.2500000e-01, 2.2500000e-01, 4.3000000e-04
2447, 3.3750000e-01, 2.2500000e-01, 4.3000000e-04
2448, 3.5000000e-01, 2.2500000e-01, 4.3000000e-04
2449, 3.6250000e-01, 2.2500000e-01, 4.3000000e-04
2450, 3.7500000e-01, 2.2500000e-01, 4.3000000e-04
2451, 3.8750000e-01, 2.2500000e-01, 4.3000000e-04
2452, 4.0000000e-01, 2.2500000e-01, 4.3000000e-04
2453, 4.1250000e-01, 2.2500000e-01, 4.3000000e-04
2454, 4.2500000e-01, 2.2500000e-01, 4.3000000e-04
2455, 4.3750000e-01, 2.2500000e-01, 4.3000000e-04
2456, 4.5000000e-01, 2.2500000e-01, 4.3000000e-04
2457, 4.6250000e-01, 2.2500000e-01, 4.3000000e-04
2458, 4.7500000e-01, 2.2500000e-01, 4.3000000e-04
2459, 4.8750000e-01, 2.2500000e-01, 4.3000000e-04
2460, 5.0000000e-01, 2.2500000e-01, 4.3000000e-04
2461, 0.0000000e+00, 2.3750000e-01, 4.3000000e-04
2462, 1.2500000e-02, 2.3750000e-01, 4.3000000e-04
2463, 2.5000000e-02, 2.3750000e-01, 4.3000000e-04
2464, 3.7500000e-02, 2.3750000e-01, 4.3000000e-04
2465, 5.0000000e-02, 2.3750000e-01, 4.3000000e-04
2466, 6.2500000e-02, 2.3750000e-01, 4.3000000e-04
2467, 7.5000000e-02, 2.3750000e-01, 4.3000000e-04
2468, 8.7500000e-02, 2.3750000e-01, 4.3000000e-04
2469, 1.0000000e-01, 2.3750000e-01, 4.3000000e-04
2470, 1.1250000e-01, 2.3750000e-01, 4.3000000e-04
2471, 1.2500000e-01, 2.3750000e-01, 4.3000000e-04
2472, 1.3750000e-01, 2.3750000e-01, 4.3000000e-04
2473, 1.5000000e-01, 2.3750000e-01, 4.3000000e-04
2474, 1.6250000e-01, 2.3750000e-01, 4.3000000e-04
2475, 1.7500000e-01, 2.3750000e-01, 4.3000000e-04
2476, 1.8750000e-01, 2.3750000e-01, 4.3000000e-04
2477, 2.0000000e-01, 2.3750000e-01, 4.3000000e-04
2478, 2.1250000e-01, 2.3750000e-01, 4.3000000e-04
2479, 2.2500000e-01, 2.3750000e-01, 4.3000000e-04
2480, 2.3750000e-01, 2.3750000e-01, 4.3000000e-04
2481, 2.5000000e-01, 2.3750000e-01, 4.3000000e-04
2482, 2.6250000e-01, 2.3750000e-01, 4.3000000e-04
2483, 2.7500000e-01, 2.3750000e-01, 4.3000000e-04
2484, 2.8750000e-01, 2.3750000e-01, 4.3000000e-04
2485, 3.0000000e-01, 2.3750000e-01, 4.3000000e-04
2486, 3.1250000e-01, 2.3750000e-01, 4.3000000e-04
2487, 3.2500000e-01, 2.3750000e-01, 4.3000000e-04
2488, 3.3750000e-01, 2.3750000e-01, 4.3000000e-04
2489, 3.5000000e-01, 2.3750000e-01, 4.3000000e-04
2490, 3.6250000e-01, 2.3750000e-01, 4.3000000e-04
2491, 3.7500000e-01, 2.3750000e-01, 4.3000000e-04
2492, 3.8750000e-01, 2.3750000e-01, 4.3000000e-04
2493, 4.0000000e-01, 2.3750000e-01, 4.3000000e-04
2494, 4.1250000e-01, 2.3750000e-01, 4.3000000e-04
2495, 4.2500000e-01, 2.3750000e-01, 4.3000000e-04
2496, 4.3750000e-01, 2.3750000e-01, 4.3000000e-04
2497, 4.5000000e-01, 2.3750000e-01, 4.3000000e-04
2498, 4.6250000e-01, 2.3750000e-01, 4.3000000e-04
2499, 4.7500000e-01, 2.3750000e-01, 4.3000000e-04
2500, 4.8750000e-01, 2.3750000e-01, 4.3000000e-04
2501, 5.0000000e-01, 2.3750000e-01, 4.3000000e-04
2502, 0.0000000e+00, 2.5000000e-01, 4.3000000e-04
2503, 1.2500000e-02, 2.5000000e-01, 4.3000000e-04
2504, 2.5000000e-02, 2.5000000e-01, 4.3000000e-04
2505, 3.7500000e-02, 2.5000000e-01, 4.3000000e-04
2506, 5.0000000e-02, 2.5000000e-01, 4.3000000e-04
2507, 6.2500000e-02, 2.5000000e-01, 4.3000000e-04
2508, 7.5000000e-02, 2.5000000e-01, 4.3000000e-04
2509, 8.7500000e-02, 2.5000000e-01, 4.3000000e-04
2510, 1.0000000e-01, 2.5000000e-01, 4.3000000e-04
2511, 1.1250000e-01, 2.5000000e-01, 4.3000000e-04
2512, 1.2500000e-01, 2.5000000e-01, 4.3000000e-04
2513, 1.3750000e-01, 2.5000000e-01, 4.3000000e-04
2514, 1.5000000e-01, 2.5000000e-01, 4.3000000e-04
2515, 1.6250000e-01, 2.5000000e-01, 4.3000000e-04
2516, 1.7500000e-01, 2.5000000e-01, 4.3000000e-04
2517, 1.8750000e-01, 2.5000000e-01, 4.3000000e-04
2518, 2.0000000e-01, 2.5000000e-01, 4.3000000e-04
2519, 2.1250000e-01, 2.5000000e-01, 4.3000000e-04
2520, 2.2500000e-01, 2.5000000e-01, 4.3000000e-04
2521, 2.3750000e-01, 2.5000000e-01, 4.3000000e-04
2522, 2.5000000e-01, 2.5000000e-01, 4.3000000e-04
2523, 2.6250000e-01, 2.5000000e-01, 4.3000000e-04
2524, 2.7500000e-01, 2.5000000e-01, 4.3000000e-04
2525, 2.8750000e-01, 2.5000000e-01, 4.3000000e-04
2526, 3.0000000e-01, 2.5000000e-01, 4.3000000e-04
2527, 3.1250000e-01, 2.5000000e-01, 4.3000000e-04
2528, 3.2500000e-01, 2.5000000e-01, 4.3000000e-04
2529, 3.3750000e-01, 2.5000000e-01, 4.3000000e-04
2530, 3.5000000e-01, 2.5000000e-01, 4.3000000e-04
2531, 3.6250000e-01, 2.5000000e-01, 4.3000000e-04
2532, 3.7500000e-01, 2.5000000e-01, 4.3000000e-04
2533, 3.8750000e-01, 2.5000000e-01, 4.3000000e-04
2534, 4.0000000e-01, 2.5000000e-01, 4.3000000e-04
2535, 4.1250000e-01, 2.5000000e-01, 4.3000000e-04
2536, 4.2500000e-01, 2.5000000e-01, 4.3000000e-04
2537, 4.3750000e-01, 2.5000000e-01, 4.3000000e-04
2538, 4.5000000e-01, 2.5000000e-01, 4.3000000e-04
2539, 4.6250000e-01, 2.5000000e-01, 4.3000000e-04
2540, 4.7500000e-01, 2.5000000e-01, 4.3000000e-04
2541, 4.8750000e-01, 2.5000000e-01, 4.3000000e-04
2542, 5.0000000e-01, 2.5000000e-01, 4.3000000e-04
2543, 0.0000000e+00, 2.6250000e-01, 4.3000000e-04
2544, 1.2500000e-02, 2.6250000e-01, 4.3000000e-04
2545, 2.5000000e-02, 2.6250000e-01, 4.3000000e-04
2546, 3.7500000e-02, 2.6250000e-01, 4.3000000e-04
2547, 5.0000000e-02, 2.6250000e-01, 4.3000000e-04
2548, 6.2500000e-02, 2.6250000e-01, 4.3000000e-04
2549, 7.5000000e-02, 2.6250000e-01, 4.3000000e-04
2550, 8.7500000e-02, 2.6250000e-01, 4.3000000e-04
2551, 1.0000000e-01, 2.6250000e-01, 4.3000000e-04
2552, 1.1250000e-01, 2.6250000e-01, 4.3000000e-04
2553, 1.2500000e-01, 2.6250000e-01, 4.3000000e-04
2554, 1.3750000e-01, 2.6250000e-01, 4.3000000e-04
2555, 1.5000000e-01, 2.6250000e-01, 4.3000000e-04
2556, 1.6250000e-01, 2.6250000e-01, 4.3000000e-04
2557, 1.7500000e-01, 2.6250000e-01, 4.3000000e-04
2558, 1.8750000e-01, 2.6250000e-01, 4.3000000e-04
2559, 2.0000000e-01, 2.6250000e-01, 4.3000000e-04
2560, 2.1250000e-01, 2.6250000e-01, 4.3000000e-04
2561, 2.2500000e-01, 2.6250000e-01, 4.3000000e-04
2562, 2.3750000e-01, 2.6250000e-01, 4.3000000e-04
2563, 2.5000000e-01, 2.6250000e-01, 4.3000000e-04
2564, 2.6250000e-01, 2.6250000e-01, 4.3000000e-04
2565, 2.7500000e-01, 2.6250000e-01, 4.3000000e-04
2566, 2.8750000e-01, 2.6250000e-01, 4.3000000e-04
2567, 3.0000000e-01, 2.6250000e-01, 4.3000000e-04
2568, 3.1250000e-01, 2.6250000e-01, 4.3000000e-04
2569, 3.2500000e-01, 2.6250000e-01, 4.3000000e-04
2570, 3.3750000e-01, 2.6250000e-01, 4.3000000e-04
2571, 3.5000000e-01, 2.6250000e-01, 4.3000000e-04
2572, 3.6250000e-01, 2.6250000e-01, 4.3000000e-04
2573, 3.7500000e-01, 2.6250000e-01, 4.3000000e-04
2574, 3.8750000e-01, 2.6250000e-01, 4.3000000e-04
2575, 4.0000000e-01, 2.6250000e-01, 4.3000000e-04
2576, 4.1250000e-01, 2.6250000e-01, 4.3000000e-04
2577, 4.2500000e-01, 2.6250000e-01, 4.3000000e-04
2578, 4.3750000e-01, 2.6250000e-01, 4.3000000e-04
2579, 4.5000000e-01, 2.6250000e-01, 4.3000000e-04
2580, 4.6250000e-01, 2.6250000e-01, 4.3000000e-04
2581, 4.7500000e-01, 2.6250000e-01, 4.3000000e-04
2582, 4.8750000e-01, 2.6250000e-01, 4.3000000e-04
2583, 5.0000000e-01, 2.6250000e-01, 4.3000000e-04
2584, 0.0000000e+00, 2.7500000e-01, 4.3000000e-04
2585, 1.2500000e-02, 2.7500000e-01, 4.3000000e-04
2586, 2.5000000e-02, 2.7500000e-01, 4.3000000e-04
2587, 3.7500000e-02, 2.7500000e-01, 4.3000000e-04
2588, 5.0000000e-02, 2.7500000e-01, 4.3000000e-04
2589, 6.2500000e-02, 2.7500000e-01, 4.3000000e-04
2590, 7.5000000e-02, 2.7500000e-01, 4.3000000e-04
2591, 8.7500000e-02, 2.7500000e-01, 4.3000000e-04
2592, 1.0000000e-01, 2.7500000e-01, 4.3000000e-04
2593, 1.1250000e-01, 2.7500000e-01, 4.3000000e-04
2594, 1.2500000e-01, 2.7500000e-01, 4.3000000e-04
2595, 1.3750000e-01, 2.7500000e-01, 4.3000000e-04
2596, 1.5000000e-01, 2.7500000e-01, 4.3000000e-04
2597, 1.6250000e-01, 2.7500000e-01, 4.3000000e-04
2598, 1.7500000e-01, 2.7500000e-01, 4.3000000e-04
2599, 1.8750000e-01, 2.7500000e-01, 4.3000000e-04
2600, 2.0000000e-01, 2.7500000e-01, 4.3000000e-04
2601, 2.1250000e-01, 2.7500000e-01, 4.3000000e-04
2602, 2.2500000e-01, 2.7500000e-01, 4.3000000e-04
2603, 2.3750000e-01, 2.7500000e-01, 4.3000000e-04
2604, 2.5000000e-01, 2.7500000e-01, 4.3000000e-04
2605, 2.6250000e-01, 2.7500000e-01, 4.3000000e-04
2606, 2.7500000e-01, 2.7500000e-01, 4.3000000e-04
2607, 2.8750000e-01, 2.7500000e-01, 4.3000000e-04
2608, 3.0000000e-01, 2.7500000e-01, 4.3000000e-04
2609, 3.1250000e-01, 2.7500000e-01, 4.3000000e-04
2610, 3.2500000e-01, 2.7500000e-01, 4.3000000e-04
2611, 3.3750000e-01, 2.7500000e-01, 4.3000000e-04
2612, 3.5000000e-01, 2.7500000e-01, 4.3000000e-04
2613, 3.6250000e-01, 2.7500000e-01, 4.3000000e-04
2614, 3.7500000e-01, 2.7500000e-01, 4.3000000e-04
2615, 3.8750000e-01, 2.7500000e-01, 4.3000000e-04
2616, 4.0000000e-01, 2.7500000e-01, 4.3000000e-04
2617, 4.1250000e-01, 2.7500000e-01, 4.3000000e-04
2618, 4.2500000e-01, 2.7500000e-01, 4.3000000e-04
2619, 4.3750000e-01, 2.7500000e-01, 4.3000000e-04
2620, 4.5000000e-01, 2.7500000e-01, 4.3000000e-04
2621, 4.6250000e-01, 2.7500000e-01, 4.3000000e-04
2622, 4.7500000e-01, 2.7500000e-01, 4.3000000e-04
2623, 4.8750000e-01, 2.7500000e-01, 4.3000000e-04
2624, 5.0000000e-01, 2.7500000e-01, 4.3000000e-04
2625, 0.0000000e+00, 2.8750000e-01, 4.3000000e-04
2626, 1.2500000e-02, 2.8750000e-01, 4.3000000e-04
2627, 2.5000000e-02, 2.8750000e-01, 4.3000000e-04
2628, 3.7500000e-02, 2.8750000e-01, 4.3000000e-04
2629, 5.0000000e-02, 2.8750000e-01, 4.3000000e-04
2630, 6.2500000e-02, 2.8750000e-01, 4.3000000e-04
2631, 7.5000000e-02, 2.8750000e-01, 4.3000000e-04
2632, 8.7500000e-02, 2.8750000e-01, 4.3000000e-04
2633, 1.0000000e-01, 2.8750000e-01, 4.3000000e-04
2634, 1.1250000e-01, 2.8750000e-01, 4.3000000e-04
2635, 1.2500000e-01, 2.8750000e-01, 4.3000000e-04
2636, 1.3750000e-01, 2.8750000e-01, 4.3000000e-04
2637, 1.5000000e-01, 2.8750000e-01, 4.3000000e-04
2638, 1.6250000e-01, 2.8750000e-01, 4.3000000e-04
2639, 1.7500000e-01, 2.8750000e-01, 4.3000000e-04
2640, 1.8750000e-01, 2.8750000e-01, 4.3000000e-04
2641, 2.0000000e-01, 2.8750000e-01, 4.3000000e-04
2642, 2.1250000e-01, 2.8750000e-01, 4.3000000e-04
2643, 2.2500000e-01, 2.8750000e-01, 4.3000000e-04
2644, 2.3750000e-01, 2.8750000e-01, 4.3000000e-04
2645, 2.5000000e-01, 2.8750000e-01, 4.3000000e-04
2646, 2.6250000e-01, 2.8750000e-01, 4.3000000e-04
2647, 2.7500000e-01, 2.8750000e-01, 4.3000000e-04
2648, 2.8750000e-01, 2.8750000e-01, 4.3000000e-04
2649, 3.0000000e-01, 2.8750000e-01, 4.3000000e-04
2650, 3.1250000e-01, 2.8750000e-01, 4.3000000e-04
2651, 3.2500000e-01, 2.8750000e-01, 4.3000000e-04
2652, 3.3750000e-01, 2.8750000e-01, 4.3000000e-04
2653, 3.5000000e-01, 2.8750000e-01, 4.3000000e-04
2654, 3.6250000e-01, 2.8750000e-01, 4.3000000e-04
2655, 3.7500000e-01, 2.8750000e-01, 4.3000000e-04
2656, 3.8750000e-01, 2.8750000e-01, 4.3000000e-04
2657, 4.0000000e-01, 2.8750000e-01, 4.3000000e-04
2658, 4.1250000e-01, 2.8750000e-01, 4.3000000e-04
2659, 4.2500000e-01, 2.8750000e-01, 4.3000000e-04
2660, 4.3750000e-01, 2.8750000e-01, 4.3000000e-04
2661, 4.5000000e-01, 2.8750000e-01, 4.3000000e-04
2662, 4.6250000e-01, 2.8750000e-01, 4.3000000e-04
2663, 4.7500000e-01, 2.8750000e-01, 4.3000000e-04
2664, 4.8750000e-01, 2.8750000e-01, 4.3000000e-04
2665, 5.0000000e-01, 2.8750000e-01, 4.3000000e-04
2666, 0.0000000e+00, 3.0000000e-01, 4.3000000e-04
2667, 1.2500000e-02, 3.0000000e-01, 4.3000000e-04
2668, 2.5000000e-02, 3.0000000e-01, 4.3000000e-04
2669, 3.7500000e-02, 3.0000000e-01, 4.3000000e-04
2670, 5.0000000e-02, 3.0000000e-01, 4.3000000e-04
2671, 6.2500000e-02, 3.0000000e-01, 4.3000000e-04
2672, 7.5000000e-02, 3.0000000e-01, 4.3000000e-04
2673, 8.7500000e-02, 3.0000000e-01, 4.3000000e-04
2674, 1.0000000e-01, 3.0000000e-01, 4.3000000e-04
2675, 1.1250000e-01, 3.0000000e-01, 4.3000000e-04
2676, 1.2500000e-01, 3.0000000e-01, 4.3000000e-04
2677, 1.3750000e-01, 3.0000000e-01, 4.3000000e-04
2678, 1.5000000e-01, 3.0000000e-01, 4.3000000e-04
2679, 1.6250000e-01, 3.0000000e-01, 4.3000000e-04
2680, 1.7500000e-01, 3.0000000e-01, 4.3000000e-04
2681, 1.8750000e-01, 3.0000000e-01, 4.3000000e-04
2682, 2.0000000e-01, 3.0000000e-01, 4.3000000e-04
2683, 2.1250000e-01, 3.0000000e-01, 4.3000000e-04
2684, 2.2500000e-01, 3.0000000e-01, 4.3000000e-04
2685, 2.3750000e-01, 3.0000000e-01, 4.3000000e-04
2686, 2.5000000e-01, 3.0000000e-01, 4.3000000e-04
2687, 2.6250000e-01, 3.0000000e-01, 4.3000000e-04
2688, 2.7500000e-01, 3.0000000e-01, 4.3000000e-04
2689, 2.8750000e-01, 3.0000000e-01, 4.3000000e-04
2690, 3.0000000e-01, 3.0000000e-01, 4.3000000e-04
2691, 3.1250000e-01, 3.0000000e-01, 4.3000000e-04
2692, 3.2500000e-01, 3.0000000e-01, 4.3000000e-04
2693, 3.3750000e-01, 3.0000000e-01, 4.3000000e-04
2694, 3.5000000e-01, 3.0000000e-01, 4.3000000e-04
2695, 3.6250000e-01, 3.0000000e-01, 4.3000000e-04
2696, 3.7500000e-01, 3.0000000e-01, 4.3000000e-04
2697, 3.8750000e-01, 3.0000000e-01, 4.3000000e-04
2698, 4.0000000e-01, 3.0000000e-01, 4.3000000e-04
2699, 4.1250000e-01, 3.0000000e-01, 4.3000000e-04
2700, 4.2500000e-01, 3.0000000e-01, 4.3000000e-04
2701, 4.3750000e-01, 3.0000000e-01, 4.3000000e-04
2702, 4.5000000e-01, 3.0000000e-01, 4.3000000e-04
2703, 4.6250000e-01, 3.0000000e-01, 4.3000000e-04
2704, 4.7500000e-01, 3.0000000e-01, 4.3000000e-04
2705, 4.8750000e-01, 3.0000000e-01, 4.3000000e-04
2706, 5.0000000e-01, 3.0000000e-01, 4.3000000e-04
2707, 0.0000000e+00, 3.1250000e-01, 4.3000000e-04
2708, 1.2500000e-02, 3.1250000e-01, 4.3000000e-04
2709, 2.5000000e-02, 3.1250000e-01, 4.3000000e-04
2710, 3.7500000e-02, 3.1250000e-01, 4.3000000e-04
2711, 5.0000000e-02, 3.1250000e-01, 4.3000000e-04
2712, 6.2500000e-02, 3.1250000e-01, 4.3000000e-04
2713, 7.5000000e-02, 3.1250000e-01, 4.3000000e-04
2714, 8.7500000e-02, 3.1250000e-01, 4.3000000e-04
2715, 1.0000000e-01, 3.1250000e-01, 4.3000000e-04
2716, 1.1250000e-01, 3.1250000e-01, 4.3000000e-04
2717, 1.2500000e-01, 3.1250000e-01, 4.3000000e-04
2718, 1.3750000e-01, 3.1250000e-01, 4.3000000e-04
2719, 1.5000000e-01, 3.1250000e-01, 4.3000000e-04
2720, 1.6250000e-01, 3.1250000e-01, 4.3000000e-04
2721, 1.7500000e-01, 3.1250000e-01, 4.3000000e-04
2722, 1.8750000e-01, 3.1250000e-01, 4.3000000e-04
2723, 2.0000000e-01, 3.1250000e-01, 4.3000000e-04
2724, 2.1250000e-01, 3.1250000e-01, 4.3000000e-04
2725, 2.2500000e-01, 3.1250000e-01, 4.3000000e-04
2726, 2.3750000e-01, 3.1250000e-01, 4.3000000e-04
2727, 2.5000000e-01, 3.1250000e-01, 4.3000000e-04
2728, 2.6250000e-01, 3.1250000e-01, 4.3000000e-04
2729, 2.7500000e-01, 3.1250000e-01, 4.3000000e-04
2730, 2.8750000e-01, 3.1250000e-01, 4.3000000e-04
2731, 3.0000000e-01, 3.1250000e-01, 4.3000000e-04
2732, 3.1250000e-01, 3.1250000e-01, 4.3000000e-04
2733, 3.2500000e-01, 3.1250000e-01, 4.3000000e-04
2734, 3.3750000e-01, 3.1250000e-01, 4.3000000e-04
2735, 3.5000000e-01, 3.1250000e-01, 4.3000000e-04
2736, 3.6250000e-01, 3.1250000e-01, 4.3000000e-04
2737, 3.7500000e-01, 3.1250000e-01, 4.3000000e-04
2738, 3.8750000e-01, 3.1250000e-01, 4.3000000e-04
2739, 4.0000000e-01, 3.1250000e-01, 4.3000000e-04
2740, 4.1250000e-01, 3.1250000e-01, 4.3000000e-04
2741, 4.2500000e-01, 3.1250000e-01, 4.3000000e-04
2742, 4.3750000e-01, 3.1250000e-01, 4.3000000e-04
2743, 4.5000000e-01, 3.1250000e-01, 4.3000000e-04
2744, 4.6250000e-01, 3.1250000e-01, 4.3000000e-04
2745, 4.7500000e-01, 3.1250000e-01, 4.3000000e-04
2746, 4.8750000e-01, 3.1250000e-01, 4.3000000e-04
2747, 5.0000000e-01, 3.1250000e-01, 4.3000000e-04
2748, 0.0000000e+00, 3.2500000e-01, 4.3000000e-04
2749, 1.2500000e-02, 3.2500000e-01, 4.3000000e-04
2750, 2.5000000e-02, 3.2500000e-01, 4.3000000e-04
2751, 3.7500000e-02, 3.2500000e-01, 4.3000000e-04
2752, 5.0000000e-02, 3.2500000e-01, 4.3000000e-04
2753, 6.2500000e-02, 3.2500000e-01, 4.3000000e-04
2754, 7.5000000e-02, 3.2500000e-01, 4.3000000e-04
2755, 8.7500000e-02, 3.2500000e-01, 4.3000000e-04
2756, 1.0000000e-01, 3.2500000e-01, 4.3000000e-04
2757, 1.1250000e-01, 3.2500000e-01, 4.3000000e-04
2758, 1.2500000e-01, 3.2500000e-01, 4.3000000e-04
2759, 1.3750000e-01, 3.2500000e-01, 4.3000000e-04
2760, 1.5000000e-01, 3.2500000e-01, 4.3000000e-04
2761, 1.6250000e-01, 3.2500000e-01, 4.3000000e-04
2762, 1.7500000e-01, 3.2500000e-01, 4.3000000e-04
2763, 1.8750000e-01, 3.2500000e-01, 4.3000000e-04
2764, 2.0000000e-01, 3.2500000e-01, 4.3000000e-04
2765, 2.1250000e-01, 3.2500000e-01, 4.3000000e-04
2766, 2.2500000e-01, 3.2500000e-01, 4.3000000e-04
2767, 2.3750000e-01, 3.2500000e-01, 4.3000000e-04
2768, 2.5000000e-01, 3.2500000e-01, 4.3000000e-04
2769, 2.6250000e-01, 3.2500000e-01, 4.3000000e-04
2770, 2.7500000e-01, 3.2500000e-01, 4.3000000e-04
2771, 2.8750000e-01, 3.2500000e-01, 4.3000000e-04
2772, 3.0000000e-01, 3.2500000e-01, 4.3000000e-04
2773, 3.1250000e-01, 3.2500000e-01, 4.3000000e-04
2774, 3.2500000e-01, 3.2500000e-01, 4.3000000e-04
2775, 3.3750000e-01, 3.2500000e-01, 4.3000000e-04
2776, 3.5000000e-01, 3.2500000e-01, 4.3000000e-04
2777, 3.6250000e-01, 3.2500000e-01, 4.3000000e-04
2778, 3.7500000e-01, 3.2500000e-01, 4.3000000e-04
2779, 3.8750000e-01, 3.2500000e-01, 4.3000000e-04
2780, 4.0000000e-01, 3.2500000e-01, 4.3000000e-04
2781, 4.1250000e-01, 3.2500000e-01, 4.3000000e-04
2782, 4.2500000e-01, 3.2500000e-01, 4.3000000e-04
2783, 4.3750000e-01, 3.2500000e-01, 4.3000000e-04
2784, 4.5000000e-01, 3.2500000e-01, 4.3000000e-04
2785, 4.6250000e-01, 3.2500000e-01, 4.3000000e-04
2786, 4.7500000e-01, 3.2500000e-01, 4.3000000e-04
2787, 4.8750000e-01, 3.2500000e-01, 4.3000000e-04
2788, 5.0000000e-01, 3.2500000e-01, 4.3000000e-04
2789, 0.0000000e+00, 3.3750000e-01, 4.3000000e-04
2790, 1.2500000e-02, 3.3750000e-01, 4.3000000e-04
2791, 2.5000000e-02, 3.3750000e-01, 4.3000000e-04
2792, 3.7500000e-02, 3.3750000e-01, 4.3000000e-04
2793, 5.0000000e-02, 3.3750000e-01, 4.3000000e-04
2794, 6.2500000e-02, 3.3750000e-01, 4.3000000e-04
2795, 7.5000000e-02, 3.3750000e-01, 4.3000000e-04
2796, 8.7500000e-02, 3.3750000e-01, 4.3000000e-04
2797, 1.0000000e-01, 3.3750000e-01, 4.3000000e-04
2798, 1.1250000e-01, 3.3750000e-01, 4.3000000e-04
2799, 1.2500000e-01, 3.3750000e-01, 4.3000000e-04
2800, 1.3750000e-01, 3.3750000e-01, 4.3000000e-04
2801, 1.5000000e-01, 3.3750000e-01, 4.3000000e-04
2802, 1.6250000e-01, 3.3750000e-01, 4.3000000e-04
2803, 1.7500000e-01, 3.3750000e-01, 4.3000000e-04
2804, 1.8750000e-01, 3.3750000e-01, 4.3000000e-04
2805, 2.0000000e-01, 3.3750000e-01, 4.3000000e-04
2806, 2.1250000e-01, 3.3750000e-01, 4.3000000e-04
2807, 2.2500000e-01, 3.3750000e-01, 4.3000000e-04
2808, 2.3750000e-01, 3.3750000e-01, 4.3000000e-04
2809, 2.5000000e-01, 3.3750000e-01, 4.3000000e-04
2810, 2.6250000e-01, 3.3750000e-01, 4.3000000e-04
2811, 2.7500000e-01, 3.3750000e-01, 4.3000000e-04
2812, 2.8750000e-01, 3.3750000e-01, 4.3000000e-04
2813, 3.0000000e-01, 3.3750000e-01, 4.3000000e-04
2814, 3.1250000e-01, 3.3750000e-01, 4.3000000e-04
2815, 3.2500000e-01, 3.3750000e-01, 4.3000000e-04
2816, 3.3750000e-01, 3.3750000e-01, 4.3000000e-04
2817, 3.5000000e-01, 3.3750000e-01, 4.3000000e-04
2818, 3.6250000e-01, 3.3750000e-01, 4.3000000e-04
2819, 3.7500000e-01, 3.3750000e-01, 4.3000000e-04
2820, 3.8750000e-01, 3.3750000e-01, 4.3000000e-04
2821, 4.0000000e-01, 3.3750000e-01, 4.3000000e-04
2822, 4.1250000e-01, 3.3750000e-01, 4.3000000e-04
2823, 4.2500000e-01, 3.3750000e-01, 4.3000000e-04
2824, 4.3750000e-01, 3.3750000e-01, 4.3000000e-04
2825, 4.5000000e-01, 3.3750000e-01, 4.3000000e-04
2826, 4.6250000e-01, 3.3750000e-01, 4.3000000e-04
2827, 4.7500000e-01, 3.3750000e-01, 4.3000000e-04
2828, 4.8750000e-01, 3.3750000e-01, 4.3000000e-04
2829, 5.0000000e-01, 3.3750000e-01, 4.3000000e-04
2830, 0.0000000e+00, 3.5000000e-01, 4.3000000e-04
2831, 1.2500000e-02, 3.5000000e-01, 4.3000000e-04
2832, 2.5000000e-02, 3.5000000e-01, 4.3000000e-04
2833, 3.7500000e-02, 3.5000000e-01, 4.3000000e-04
2834, 5.0000000e-02, 3.5000000e-01, 4.3000000e-04
2835, 6.2500000e-02, 3.5000000e-01, 4.3000000e-04
2836, 7.5000000e-02, 3.5000000e-01, 4.3000000e-04
2837, 8.7500000e-02, 3.5000000e-01, 4.3000000e-04
2838, 1.0000000e-01, 3.5000000e-01, 4.3000000e-04
2839, 1.1250000e-01, 3.5000000e-01, 4.3000000e-04
2840, 1.2500000e-01, 3.5000000e-01, 4.3000000e-04
2841, 1.3750000e-01, 3.5000000e-01, 4.3000000e-04
2842, 1.5000000e-01, 3.5000000e-01, 4.3000000e-04
2843, 1.6250000e-01, 3.5000000e-01, 4.3000000e-04
2844, 1.7500000e-01, 3.5000000e-01, 4.3000000e-04
2845, 1.8750000e-01, 3.5000000e-01, 4.3000000e-04
2846, 2.0000000e-01, 3.5000000e-01, 4.3000000e-04
2847, 2.1250000e-01, 3.5000000e-01, 4.3000000e-04
2848, 2.2500000e-01, 3.5000000e-01, 4.3000000e-04
2849, 2.3750000e-01, 3.5000000e-01, 4.3000000e-04
2850, 2.5000000e-01, 3.5000000e-01, 4.3000000e-04
2851, 2.6250000e-01, 3.5000000e-01, 4.3000000e-04
2852, 2.7500000e-01, 3.5000000e-01, 4.3000000e-04
2853, 2.8750000e-01, 3.5000000e-01, 4.3000000e-04
2854, 3.0000000e-01, 3.5000000e-01, 4.3000000e-04
2855, 3.1250000e-01, 3.5000000e-01, 4.3000000e-04
2856, 3.2500000e-01, 3.5000000e-01, 4.3000000e-04
2857, 3.3750000e-01, 3.5000000e-01, 4.3000000e-04
2858, 3.5000000e-01, 3.5000000e-01, 4.3000000e-04
2859, 3.6250000e-01, 3.5000000e-01, 4.3000000e-04
2860, 3.7500000e-01, 3.5000000e-01, 4.3000000e-04
2861, 3.8750000e-01, 3.5000000e-01, 4.3000000e-04
2862, 4.0000000e-01, 3.5000000e-01, 4.3000000e-04
2863, 4.1250000e-01, 3.5000000e-01, 4.3000000e-04
2864, 4.2500000e-01, 3.5000000e-01, 4.3000000e-04
2865, 4.3750000e-01, 3.5000000e-01, 4.3000000e-04
2866, 4.5000000e-01, 3.5000000e-01, 4.3000000e-04
2867, 4.6250000e-01, 3.5000000e-01, 4.3000000e-04
2868, 4.7500000e-01, 3.5000000e-01, 4.3000000e-04
2869, 4.8750000e-01, 3.5000000e-01, 4.3000000e-04
2870, 5.0000000e-01, 3.5000000e-01, 4.3000000e-04
2871, 0.0000000e+00, 3.6250000e-01, 4.3000000e-04
2872, 1.2500000e-02, 3.6250000e-01, 4.3000000e-04
2873, 2.5000000e-02, 3.6250000e-01, 4.3000000e-04
2874, 3.7500000e-02, 3.6250000e-01, 4.3000000e-04
2875, 5.0000000e-02, 3.6250000e-01, 4.3000000e-04
2876, 6.2500000e-02, 3.6250000e-01, 4.3000000e-04
2877, 7.5000000e-02, 3.6250000e-01, 4.3000000e-04
2878, 8.7500000e-02, 3.6250000e-01, 4.3000000e-04
2879, 1.0000000e-01, 3.6250000e-01, 4.3000000e-04
2880, 1.1250000e-01, 3.6250000e-01, 4.3000000e-04
2881, 1.2500000e-01, 3.6250000e-01, 4.3000000e-04
2882, 1.3750000e-01, 3.6250000e-01, 4.3000000e-04
2883, 1.5000000e-01, 3.6250000e-01, 4.3000000e-04
2884, 1.6250000e-01, 3.6250000e-01, 4.3000000e-04
2885, 1.7500000e-01, 3.6250000e-01, 4.3000000e-04
2886, 1.8750000e-01, 3.6250000e-01, 4.3000000e-04
2887, 2.0000000e-01, 3.6250000e-01, 4.3000000e-04
2888, 2.1250000e-01, 3.6250000e-01, 4.3000000e-04
2889, 2.2500000e-01, 3.6250000e-01, 4.3000000e-04
2890, 2.3750000e-01, 3.6250000e-01, 4.3000000e-04
2891, 2.5000000e-01, 3.6250000e-01, 4.3000000e-04
2892, 2.6250000e-01, 3.6250000e-01, 4.3000000e-04
2893, 2.7500000e-01, 3.6250000e-01, 4.3000000e-04
2894, 2.8750000e-01, 3.6250000e-01, 4.3000000e-04
2895, 3.0000000e-01, 3.6250000e-01, 4.3000000e-04
2896, 3.1250000e-01, 3.6250000e-01, 4.3000000e-04
2897, 3.2500000e-01, 3.6250000e-01, 4.3000000e-04
2898, 3.3750000e-01, 3.6250000e-01, 4.3000000e-04
2899, 3.5000000e-01, 3.6250000e-01, 4.3000000e-04
2900, 3.6250000e-01, 3.6250000e-01, 4.3000000e-04
2901, 3.7500000e-01, 3.6250000e-01, 4.3000000e-04
2902, 3.8750000e-01, 3.6250000e-01, 4.3000000e-04
2903, 4.0000000e-01, 3.6250000e-01, 4.3000000e-04
2904, 4.1250000e-01, 3.6250000e-01, 4.3000000e-04
2905, 4.2500000e-01, 3.6250000e-01, 4.3000000e-04
2906, 4.3750000e-01, 3.6250000e-01, 4.3000000e-04
2907, 4.5000000e-01, 3.6250000e-01, 4.3000000e-04
2908, 4.6250000e-01, 3.6250000e-01, 4.3000000e-04
2909, 4.7500000e-01, 3.6250000e-01, 4.3000000e-04
2910, 4.8750000e-01, 3.6250000e-01, 4.3000000e-04
2911, 5.0000000e-01, 3.6250000e-01, 4.3000000e-04
2912, 0.0000000e+00, 3.7500000e-01, 4.3000000e-04
2913, 1.2500000e-02, 3.7500000e-01, 4.3000000e-04
2914, 2.5000000e-02, 3.7500000e-01, 4.3000000e-04
2915, 3.7500000e-02, 3.7500000e-01, 4.3000000e-04
2916, 5.0000000e-02, 3.7500000e-01, 4.3000000e-04
2917, 6.2500000e-02, 3.7500000e-01, 4.3000000e-04
2918, 7.5000000e-02, 3.7500000e-01, 4.3000000e-04
2919, 8.7500000e-02, 3.7500000e-01, 4.3000000e-04
2920, 1.0000000e-01, 3.7500000e-01, 4.3000000e-04
2921, 1.1250000e-01, 3.7500000e-01, 4.3000000e-04
2922, 1.2500000e-01, 3.7500000e-01, 4.3000000e-04
2923, 1.3750000e-01, 3.7500000e-01, 4.3000000e-04
2924, 1.5000000e-01, 3.7500000e-01, 4.3000000e-04
2925, 1.6250000e-01, 3.7500000e-01, 4.3000000e-04
2926, 1.7500000e-01, 3.7500000e-01, 4.3000000e-04
2927, 1.8750000e-01, 3.7500000e-01, 4.3000000e-04
2928, 2.0000000e-01, 3.7500000e-01, 4.3000000e-04
2929, 2.1250000e-01, 3.7500000e-01, 4.3000000e-04
2930, 2.2500000e-01, 3.7500000e-01, 4.3000000e-04
2931, 2.3750000e-01, 3.7500000e-01, 4.3000000e-04
2932, 2.5000000e-01, 3.7500000e-01, 4.3000000e-04
2933, 2.6250000e-01, 3.7500000e-01, 4.3000000e-04
2934, 2.7500000e-01, 3.7500000e-01, 4.3000000e-04
2935, 2.8750000e-01, 3.7500000e-01, 4.3000000e-04
2936, 3.0000000e-01, 3.7500000e-01, 4.3000000e-04
2937, 3.1250000e-01, 3.7500000e-01, 4.3000000e-04
2938, 3.2500000e-01, 3.7500000e-01, 4.3000000e-04
2939, 3.3750000e-01, 3.7500000e-01, 4.3000000e-04
2940, 3.5000000e-01, 3.7500000e-01, 4.3000000e-04
2941, 3.6250000e-01, 3.7500000e-01, 4.3000000e-04
2942, 3.7500000e-01, 3.7500000e-01, 4.3000000e-04
2943, 3.8750000e-01, 3.7500000e-01, 4.3000000e-04
2944, 4.0000000e-01, 3.7500000e-01, 4.3000000e-04
2945, 4.1250000e-01, 3.7500000e-01, 4.3000000e-04
2946, 4.2500000e-01, 3.7500000e-01, 4.3000000e-04
2947, 4.3750000e-01, 3.7500000e-01, 4.3000000e-04
2948, 4.5000000e-01, 3.7500000e-01, 4.3000000e-04
2949, 4.6250000e-01, 3.7500000e-01, 4.3000000e-04
2950, 4.7500000e-01, 3.7500000e-01, 4.3000000e-04
2951, 4.8750000e-01, 3.7500000e-01, 4.3000000e-04
2952, 5.0000000e-01, 3.7500000e-01, 4.3000000e-04
2953, 0.0000000e+00, 3.8750000e-01, 4.3000000e-04
2954, 1.2500000e-02, 3.8750000e-01, 4.3000000e-04
2955, 2.5000000e-02, 3.8750000e-01, 4.3000000e-04
2956, 3.7500000e-02, 3.8750000e-01, 4.3000000e-04
2957, 5.0000000e-02, 3.8750000e-01, 4.3000000e-04
2958, 6.2500000e-02, 3.8750000e-01, 4.3000000e-04
2959, 7.5000000e-02, 3.8750000e-01, 4.3000000e-04
2960, 8.7500000e-02, 3.8750000e-01, 4.3000000e-04
2961, 1.0000000e-01, 3.8750000e-01, 4.3000000e-04
2962, 1.1250000e-01, 3.8750000e-01, 4.3000000e-04
2963, 1.2500000e-01, 3.8750000e-01, 4.3000000e-04
2964, 1.3750000e-01, 3.8750000e-01, 4.3000000e-04
2965, 1.5000000e-01, 3.8750000e-01, 4.3000000e-04
2966, 1.6250000e-01, 3.8750000e-01, 4.3000000e-04
2967, 1.7500000e-01, 3.8750000e-01, 4.3000000e-04
2968, 1.8750000e-01, 3.8750000e-01, 4.3000000e-04
2969, 2.0000000e-01, 3.8750000e-01, 4.3000000e-04
2970, 2.1250000e-01, 3.8750000e-01, 4.3000000e-04
2971, 2.2500000e-01, 3.8750000e-01, 4.3000000e-04
2972, 2.3750000e-01, 3.8750000e-01, 4.3000000e-04
2973, 2.5000000e-01, 3.8750000e-01, 4.3000000e-04
2974, 2.6250000e-01, 3.8750000e-01, 4.3000000e-04
2975, 2.7500000e-01, 3.8750000e-01, 4.3000000e-04
2976, 2.8750000e-01, 3.8750000e-01, 4.3000000e-04
2977, 3.0000000e-01, 3.8750000e-01, 4.3000000e-04
2978, 3.1250000e-01, 3.8750000e-01, 4.3000000e-04
2979, 3.2500000e-01, 3.8750000e-01, 4.3000000e-04
2980, 3.3750000e-01, 3.8750000e-01, 4.3000000e-04
2981, 3.5000000e-01, 3.8750000e-01, 4.3000000e-04
2982, 3.6250000e-01, 3.8750000e-01, 4.3000000e-04
2983, 3.7500000e-01, 3.8750000e-01, 4.3000000e-04
2984, 3.8750000e-01, 3.8750000e-01, 4.3000000e-04
2985, 4.0000000e-01, 3.8750000e-01, 4.3000000e-04
2986, 4.1250000e-01, 3.8750000e-01, 4.3000000e-04
2987, 4.2500000e-01, 3.8750000e-01, 4.3000000e-04
2988, 4.3750000e-01, 3.8750000e-01, 4.3000000e-04
2989, 4.5000000e-01, 3.8750000e-01, 4.3000000e-04
2990, 4.6250000e-01, 3.8750000e-01, 4.3000000e-04
2991, 4.7500000e-01, 3.8750000e-01, 4.3000000e-04
2992, 4.8750000e-01, 3.8750000e-01, 4.3000000e-04
2993, 5.0000000e-01, 3.8750000e-01, 4.3000000e-04
2994, 0.0000000e+00, 4.0000000e-01, 4.3000000e-04
2995, 1.2500000e-02, 4.0000000e-01, 4.3000000e-04
2996, 2.5000000e-02, 4.0000000e-01, 4.3000000e-04
2997, 3.7500000e-02, 4.0000000e-01, 4.3000000e-04
2998, 5.0000000e-02, 4.0000000e-01, 4.3000000e-04
2999, 6.2500000e-02, 4.0000000e-01, 4.3000000e-04
3000, 7.5000000e-02, 4.0000000e-01, 4.3000000e-04
3001, 8.7500000e-02, 4.0000000e-01, 4.3000000e-04
3002, 1.0000000e-01, 4.0000000e-01, 4.3000000e-04
3003, 1.1250000e-01, 4.0000000e-01, 4.3000000e-04
3004, 1.2500000e-01, 4.0000000e-01, 4.3000000e-04
3005, 1.3750000e-01, 4.0000000e-01, 4.3000000e-04
3006, 1.5000000e-01, 4.0000000e-01, 4.3000000e-04
3007, 1.6250000e-01, 4.0000000e-01, 4.3000000e-04
3008, 1.7500000e-01, 4.0000000e-01, 4.3000000e-04
3009, 1.8750000e-01, 4.0000000e-01, 4.3000000e-04
3010, 2.0000000e-01, 4.0000000e-01, 4.3000000e-04
3011, 2.1250000e-01, 4.0000000e-01, 4.3000000e-04
3012, 2.2500000e-01, 4.0000000e-01, 4.3000000e-04
3013, 2.3750000e-01, 4.0000000e-01, 4.3000000e-04
3014, 2.5000000e-01, 4.0000000e-01, 4.3000000e-04
3015, 2.6250000e-01, 4.0000000e-01, 4.3000000e-04
3016, 2.7500000e-01, 4.0000000e-01, 4.3000000e-04
3017, 2.8750000e-01, 4.0000000e-01, 4.3000000e-04
3018, 3.0000000e-01, 4.0000000e-01, 4.3000000e-04
3019, 3.1250000e-01, 4.0000000e-01, 4.3000000e-04
3020, 3.2500000e-01, 4.0000000e-01, 4.3000000e-04
3021, 3.3750000e-01, 4.0000000e-01, 4.3000000e-04
3022, 3.5000000e-01, 4.0000000e-01, 4.3000000e-04
3023, 3.6250000e-01, 4.0000000e-01, 4.3000000e-04
3024, 3.7500000e-01, 4.0000000e-01, 4.3000000e-04
3025, 3.8750000e-01, 4.0000000e-01, 4.3000000e-04
3026, 4.0000000e-01, 4.0000000e-01, 4.3000000e-04
3027, 4.1250000e-01, 4.0000000e-01, 4.3000000e-04
3028, 4.2500000e-01, 4.0000000e-01, 4.3000000e-04
3029, 4.3750000e-01, 4.0000000e-01, 4.3000000e-04
3030, 4.5000000e-01, 4.0000000e-01, 4.3000000e-04
3031, 4.6250000e-01, 4.0000000e-01, 4.3000000e-04
3032, 4.7500000e-01, 4.0000000e-01, 4.3000000e-04
3033, 4.8750000e-01, 4.0000000e-01, 4.3000000e-04
3034, 5.0000000e-01, 4.0000000e-01, 4.3000000e-04
3035, 0.0000000e+00, 4.1250000e-01, 4.3000000e-04
3036, 1.2500000e-02, 4.1250000e-01, 4.3000000e-04
3037, 2.5000000e-02, 4.1250000e-01, 4.3000000e-04
3038, 3.7500000e-02, 4.1250000e-01, 4.3000000e-04
3039, 5.0000000e-02, 4.1250000e-01, 4.3000000e-04
3040, 6.2500000e-02, 4.1250000e-01, 4.3000000e-04
3041, 7.5000000e-02, 4.1250000e-01, 4.3000000e-04
3042, 8.7500000e-02, 4.1250000e-01, 4.3000000e-04
3043, 1.0000000e-01, 4.1250000e-01, 4.3000000e-04
3044, 1.1250000e-01, 4.1250000e-01, 4.3000000e-04
3045, 1.2500000e-01, 4.1250000e-01, 4.3000000e-04
3046, 1.3750000e-01, 4.1250000e-01, 4.3000000e-04
3047, 1.5000000e-01, 4.1250000e-01, 4.3000000e-04
3048, 1.6250000e-01, 4.1250000e-01, 4.3000000e-04
3049, 1.7500000e-01, 4.1250000e-01, 4.3000000e-04
3050, 1.8750000e-01, 4.1250000e-01, 4.3000000e-04
3051, 2.0000000e-01, 4.1250000e-01, 4.3000000e-04
3052, 2.1250000e-01, 4.1250000e-01, 4.3000000e-04
3053, 2.2500000e-01, 4.1250000e-01, 4.3000000e-04
3054, 2.3750000e-01, 4.1250000e-01, 4.3000000e-04
3055, 2.5000000e-01, 4.1250000e-01, 4.3000000e-04
3056, 2.6250000e-01, 4.1250000e-01, 4.3000000e-04
3057, 2.7500000e-01, 4.1250000e-01, 4.3000000e-04
3058, 2.8750000e-01, 4.1250000e-01, 4.3000000e-04
3059, 3.0000000e-01, 4.1250000e-01, 4.3000000e-04
3060, 3.1250000e-01, 4.1250000e-01, 4.3000000e-04
3061, 3.2500000e-01, 4.1250000e-01, 4.3000000e-04
3062, 3.3750000e-01, 4.1250000e-01, 4.3000000e-04
3063, 3.5000000e-01, 4.1250000e-01, 4.3000000e-04
3064, 3.6250000e-01, 4.1250000e-01, 4.3000000e-04
3065, 3.7500000e-01, 4.1250000e-01, 4.3000000e-04
3066, 3.8750000e-01, 4.1250000e-01, 4.3000000e-04
3067, 4.0000000e-01, 4.1250000e-01, 4.3000000e-04
3068, 4.1250000e-01, 4.1250000e-01, 4.3000000e-04
3069, 4.2500000e-01, 4.1250000e-01, 4.3000000e-04
3070, 4.3750000e-01, 4.1250000e-01, 4.3000000e-04
3071, 4.5000000e-01, 4.1250000e-01, 4.3000000e-04
3072, 4.6250000e-01, 4.1250000e-01, 4.3000000e-04
3073, 4.7500000e-01, 4.1250000e-01, 4.3000000e-04
3074, 4.8750000e-01, 4.1250000e-01, 4.3000000e-04
3075, 5.0000000e-01, 4.1250000e-01, 4.3000000e-04
3076, 0.0000000e+00, 4.2500000e-01, 4.3000000e-04
3077, 1.2500000e-02, 4.2500000e-01, 4.3000000e-04
3078, 2.5000000e-02, 4.2500000e-01, 4.3000000e-04
3079, 3.7500000e-02, 4.2500000e-01, 4.3000000e-04
3080, 5.0000000e-02, 4.2500000e-01, 4.3000000e-04
3081, 6.2500000e-02, 4.2500000e-01, 4.3000000e-04
3082, 7.5000000e-02, 4.2500000e-01, 4.3000000e-04
3083, 8.7500000e-02, 4.2500000e-01, 4.3000000e-04
3084, 1.0000000e-01, 4.2500000e-01, 4.3000000e-04
3085, 1.1250000e-01, 4.2500000e-01, 4.3000000e-04
3086, 1.2500000e-01, 4.2500000e-01, 4.3000000e-04
3087, 1.3750000e-01, 4.2500000e-01, 4.3000000e-04
3088, 1.5000000e-01, 4.2500000e-01, 4.3000000e-04
3089, 1.6250000e-01, 4.2500000e-01, 4.3000000e-04
3090, 1.7500000e-01, 4.2500000e-01, 4.3000000e-04
3091, 1.8750000e-01, 4.2500000e-01, 4.3000000e-04
3092, 2.0000000e-01, 4.2500000e-01, 4.3000000e-04
3093, 2.1250000e-01, 4.2500000e-01, 4.3000000e-04
3094, 2.2500000e-01, 4.2500000e-01, 4.3000000e-04
3095, 2.3750000e-01, 4.2500000e-01, 4.3000000e-04
3096, 2.5000000e-01, 4.2500000e-01, 4.3000000e-04
3097, 2.6250000e-01, 4.2500000e-01, 4.3000000e-04
3098, 2.7500000e-01, 4.2500000e-01, 4.3000000e-04
3099, 2.8750000e-01, 4.2500000e-01, 4.3000000e-04
3100, 3.0000000e-01, 4.2500000e-01, 4.3000000e-04
3101, 3.1250000e-01, 4.2500000e-01, 4.3000000e-04
3102, 3.2500000e-01, 4.2500000e-01, 4.3000000e-04
3103, 3.3750000e-01, 4.2500000e-01, 4.3000000e-04
3104, 3.5000000e-01, 4.2500000e-01, 4.3000000e-04
3105, 3.6250000e-01, 4.2500000e-01, 4.3000000e-04
3106, 3.7500000e-01, 4.2500000e-01, 4.3000000e-04
3107, 3.8750000e-01, 4.2500000e-01, 4.3000000e-04
3108, 4.0000000e-01, 4.2500000e-01, 4.3000000e-04
3109, 4.1250000e-01, 4.2500000e-01, 4.3000000e-04
3110, 4.2500000e-01, 4.2500000e-01, 4.3000000e-04
3111, 4.3750000e-01, 4.2500000e-01, 4.3000000e-04
3112, 4.5000000e-01, 4.2500000e-01, 4.3000000e-04
3113, 4.6250000e-01, 4.2500000e-01, 4.3000000e-04
3114, 4.7500000e-01, 4.2500000e-01, 4.3000000e-04
3115, 4.8750000e-01, 4.2500000e-01, 4.3000000e-04
3116, 5.0000000e-01, 4.2500000e-01, 4.3000000e-04
3117, 0.0000000e+00, 4.3750000e-01, 4.3000000e-04
3118, 1.2500000e-02, 4.3750000e-01, 4.3000000e-04
3119, 2.5000000e-02, 4.3750000e-01, 4.3000000e-04
3120, 3.7500000e-02, 4.3750000e-01, 4.3000000e-04
3121, 5.0000000e-02, 4.3750000e-01, 4.3000000e-04
3122, 6.2500000e-02, 4.3750000e-01, 4.3000000e-04
3123, 7.5000000e-02, 4.3750000e-01, 4.3000000e-04
3124, 8.7500000e-02, 4.3750000e-01, 4.3000000e-04
3125, 1.0000000e-01, 4.3750000e-01, 4.3000000e-04
3126, 1.1250000e-01, 4.3750000e-01, 4.3000000e-04
3127, 1.2500000e-01, 4.3750000e-01, 4.3000000e-04
3128, 1.3750000e-01, 4.3750000e-01, 4.3000000e-04
3129, 1.5000000e-01, 4.3750000e-01, 4.3000000e-04
3130, 1.6250000e-01, 4.3750000e-01, 4.3000000e-04
3131, 1.7500000e-01, 4.3750000e-01, 4.3000000e-04
3132, 1.8750000e-01, 4.3750000e-01, 4.3000000e-04
3133, 2.0000000e-01, 4.3750000e-01, 4.3000000e-04
3134, 2.1250000e-01, 4.3750000e-01, 4.3000000e-04
3135, 2.2500000e-01, 4.3750000e-01, 4.3000000e-04
3136, 2.3750000e-01, 4.3750000e-01, 4.3000000e-04
3137, 2.5000000e-01, 4.3750000e-01, 4.3000000e-04
3138, 2.6250000e-01, 4.3750000e-01, 4.3000000e-04
3139, 2.7500000e-01, 4.3750000e-01, 4.3000000e-04
3140, 2.8750000e-01, 4.3750000e-01, 4.3000000e-04
3141, 3.0000000e-01, 4.3750000e-01, 4.3000000e-04
3142, 3.1250000e-01, 4.3750000e-01, 4.3000000e-04
3143, 3.2500000e-01, 4.3750000e-01, 4.3000000e-04
3144, 3.3750000e-01, 4.3750000e-01, 4.3000000e-04
3145, 3.5000000e-01, 4.3750000e-01, 4.3000000e-04
3146, 3.6250000e-01, 4.3750000e-01, 4.3000000e-04
3147, 3.7500000e-01, 4.3750000e-01, 4.3000000e-04
3148, 3.8750000e-01, 4.3750000e-01, 4.3000000e-04
3149, 4.0000000e-01, 4.3750000e-01, 4.3000000e-04
3150, 4.1250000e-01, 4.3750000e-01, 4.3000000e-04
3151, 4.2500000e-01, 4.3750000e-01, 4.3000000e-04
3152, 4.3750000e-01, 4.3750000e-01, 4.3000000e-04
3153, 4.5000000e-01, 4.3750000e-01, 4.3000000e-04
3154, 4.6250000e-01, 4.3750000e-01, 4.3000000e-04
3155, 4.7500000e-01, 4.3750000e-01, 4.3000000e-04
3156, 4.8750000e-01, 4.3750000e-01, 4.3000000e-04
3157, 5.0000000e-01, 4.3750000e-01, 4.3000000e-04
3158, 0.0000000e+00, 4.5000000e-01, 4.3000000e-04
3159, 1.2500000e-02, 4.5000000e-01, 4.3000000e-04
3160, 2.5000000e-02, 4.5000000e-01, 4.3000000e-04
3161, 3.7500000e-02, 4.5000000e-01, 4.3000000e-04
3162, 5.0000000e-02, 4.5000000e-01, 4.3000000e-04
3163, 6.2500000e-02, 4.5000000e-01, 4.3000000e-04
3164, 7.5000000e-02, 4.5000000e-01, 4.3000000e-04
3165, 8.7500000e-02, 4.5000000e-01, 4.3000000e-04
3166, 1.0000000e-01, 4.5000000e-01, 4.3000000e-04
3167, 1.1250000e-01, 4.5000000e-01, 4.3000000e-04
3168, 1.2500000e-01, 4.5000000e-01, 4.3000000e-04
3169, 1.3750000e-01, 4.5000000e-01, 4.3000000e-04
3170, 1.5000000e-01, 4.5000000e-01, 4.3000000e-04
3171, 1.6250000e-01, 4.5000000e-01, 4.3000000e-04
3172, 1.7500000e-01, 4.5000000e-01, 4.3000000e-04
3173, 1.8750000e-01, 4.5000000e-01, 4.3000000e-04
3174, 2.0000000e-01, 4.5000000e-01, 4.3000000e-04
3175, 2.1250000e-01, 4.5000000e-01, 4.3000000e-04
3176, 2.2500000e-01, 4.5000000e-01, 4.3000000e-04
3177, 2.3750000e-01, 4.5000000e-01, 4.3000000e-04
3178, 2.5000000e-01, 4.5000000e-01, 4.3000000e-04
3179, 2.6250000e-01, 4.5000000e-01, 4.3000000e-04
3180, 2.7500000e-01, 4.5000000e-01, 4.3000000e-04
3181, 2.8750000e-01, 4.5000000e-01, 4.3000000e-04
3182, 3.0000000e-01, 4.5000000e-01, 4.3000000e-04
3183, 3.1250000e-01, 4.5000000e-01, 4.3000000e-04
3184, 3.2500000e-01, 4.5000000e-01, 4.3000000e-04
3185, 3.3750000e-01, 4.5000000e-01, 4.3000000e-04
3186, 3.5000000e-01, 4.5000000e-01, 4.3000000e-04
3187, 3.6250000e-01, 4.5000000e-01, 4.3000000e-04
3188, 3.7500000e-01, 4.5000000e-01, 4.3000000e-04
3189, 3.8750000e-01, 4.5000000e-01, 4.3000000e-04
3190, 4.0000000e-01, 4.5000000e-01, 4.3000000e-04
3191, 4.1250000e-01, 4.5000000e-01, 4.3000000e-04
3192, 4.2500000e-01, 4.5000000e-01, 4.3000000e-04
3193, 4.3750000e-01, 4.5000000e-01, 4.3000000e-04
3194, 4.5000000e-01, 4.5000000e-01, 4.3000000e-04
3195, 4.6250000e-01, 4.5000000e-01, 4.3000000e-04
3196, 4.7500000e-01, 4.5000000e-01, 4.3000000e-04
3197, 4.8750000e-01, 4.5000000e-01, 4.3000000e-04
3198, 5.0000000e-01, 4.5000000e-01, 4.3000000e-04
3199, 0.0000000e+00, 4.6250000e-01, 4.3000000e-04
3200, 1.2500000e-02, 4.6250000e-01, 4.3000000e-04
3201, 2.5000000e-02, 4.6250000e-01, 4.3000000e-04
3202, 3.7500000e-02, 4.6250000e-01, 4.3000000e-04
3203, 5.0000000e-02, 4.6250000e-01, 4.3000000e-04
3204, 6.2500000e-02, 4.6250000e-01, 4.3000000e-04
3205, 7.5000000e-02, 4.6250000e-01, 4.3000000e-04
3206, 8.7500000e-02, 4.6250000e-01, 4.3000000e-04
3207, 1.0000000e-01, 4.6250000e-01, 4.3000000e-04
3208, 1.1250000e-01, 4.6250000e-01, 4.3000000e-04
3209, 1.2500000e-01, 4.6250000e-01, 4.3000000e-04
3210, 1.3750000e-01, 4.6250000e-01, 4.3000000e-04
3211, 1.5000000e-01, 4.6250000e-01, 4.3000000e-04
3212, 1.6250000e-01, 4.6250000e-01, 4.3000000e-04
3213, 1.7500000e-01, 4.6250000e-01, 4.3000000e-04
3214, 1.8750000e-01, 4.6250000e-01, 4.3000000e-04
3215, 2.0000000e-01, 4.6250000e-01, 4.3000000e-04
3216, 2.1250000e-01, 4.6250000e-01, 4.3000000e-04
3217, 2.2500000e-01, 4.6250000e-01, 4.3000000e-04
3218, 2.3750000e-01, 4.6250000e-01, 4.3000000e-04
3219, 2.5000000e-01, 4.6250000e-01, 4.3000000e-04
3220, 2.6250000e-01, 4.6250000e-01, 4.3000000e-04
3221, 2.7500000e-01, 4.6250000e-01, 4.3000000e-04
3222, 2.8750000e-01, 4.6250000e-01, 4.3000000e-04
3223, 3.0000000e-01, 4.6250000e-01, 4.3000000e-04
3224, 3.1250000e-01, 4.6250000e-01, 4.3000000e-04
3225, 3.2500000e-01, 4.6250000e-01, 4.3000000e-04
3226, 3.3750000e-01, 4.6250000e-01, 4.3000000e-04
3227, 3.5000000e-01, 4.6250000e-01, 4.3000000e-04
3228, 3.6250000e-01, 4.6250000e-01, 4.3000000e-04
3229, 3.7500000e-01, 4.6250000e-01, 4.3000000e-04
3230, 3.8750000e-01, 4.6250000e-01, 4.3000000e-04
3231, 4.0000000e-01, 4.6250000e-01, 4.3000000e-04
3232, 4.1250000e-01, 4.6250000e-01, 4.3000000e-04
3233, 4.2500000e-01, 4.6250000e-01, 4.3000000e-04
3234, 4.3750000e-01, 4.6250000e-01, 4.3000000e-04
3235, 4.5000000e-01, 4.6250000e-01, 4.3000000e-04
3236, 4.6250000e-01, 4.6250000e-01, 4.3000000e-04
3237, 4.7500000e-01, 4.6250000e-01, 4.3000000e-04
3238, 4.8750000e-01, 4.6250000e-01, 4.3000000e-04
3239, 5.0000000e-01, 4.6250000e-01, 4.3000000e-04
3240, 0.0000000e+00, 4.7500000e-01, 4.3000000e-04
3241, 1.2500000e-02, 4.7500000e-01, 4.3000000e-04
3242, 2.5000000e-02, 4.7500000e-01, 4.3000000e-04
3243, 3.7500000e-02, 4.7500000e-01, 4.3000000e-04
3244, 5.0000000e-02, 4.7500000e-01, 4.3000000e-04
3245, 6.2500000e-02, 4.7500000e-01, 4.3000000e-04
3246, 7.5000000e-02, 4.7500000e-01, 4.3000000e-04
3247, 8.7500000e-02, 4.7500000e-01, 4.3000000e-04
3248, 1.0000000e-01, 4.7500000e-01, 4.3000000e-04
3249, 1.1250000e-01, 4.7500000e-01, 4.3000000e-04
3250, 1.2500000e-01, 4.7500000e-01, 4.3000000e-04
3251, 1.3750000e-01, 4.7500000e-01, 4.3000000e-04
3252, 1.5000000e-01, 4.7500000e-01, 4.3000000e-04
3253, 1.6250000e-01, 4.7500000e-01, 4.3000000e-04
3254, 1.7500000e-01, 4.7500000e-01, 4.3000000e-04
3255, 1.8750000e-01, 4.7500000e-01, 4.3000000e-04
3256, 2.0000000e-01, 4.7500000e-01, 4.3000000e-04
3257, 2.1250000e-01, 4.7500000e-01, 4.3000000e-04
3258, 2.2500000e-01, 4.7500000e-01, 4.3000000e-04
3259, 2.3750000e-01, 4.7500000e-01, 4.3000000e-04
3260, 2.5000000e-01, 4.7500000e-01, 4.3000000e-04
3261, 2.6250000e-01, 4.7500000e-01, 4.3000000e-04
3262, 2.7500000e-01, 4.7500000e-01, 4.3000000e-04
3263, 2.8750000e-01, 4.7500000e-01, 4.3000000e-04
3264, 3.0000000e-01, 4.7500000e-01, 4.3000000e-04
3265, 3.1250000e-01, 4.7500000e-01, 4.3000000e-04
3266, 3.2500000e-01, 4.7500000e-01, 4.3000000e-04
3267, 3.3750000e-01, 4.7500000e-01, 4.3000000e-04
3268, 3.5000000e-01, 4.7500000e-01, 4.3000000e-04
3269, 3.6250000e-01, 4.7500000e-01, 4.3000000e-04
3270, 3.7500000e-01, 4.7500000e-01, 4.3000000e-04
3271, 3.8750000e-01, 4.7500000e-01, 4.3000000e-04
3272, 4.0000000e-01, 4.7500000e-01, 4.3000000e-04
3273, 4.1250000e-01, 4.7500000e-01, 4.3000000e-04
3274, 4.2500000e-01, 4.7500000e-01, 4.3000000e-04
3275, 4.3750000e-01, 4.7500000e-01, 4.3000000e-04
3276, 4.5000000e-01, 4.7500000e-01, 4.3000000e-04
3277, 4.6250000e-01, 4.7500000e-01, 4.3000000e-04
3278, 4.7500000e-01, 4.7500000e-01, 4.3000000e-04
3279, 4.8750000e-01, 4.7500000e-01, 4.3000000e-04
3280, 5.0000000e-01, 4.7500000e-01, 4.3000000e-04
3281, 0.0000000e+00, 4.8750000e-01, 4.3000000e-04
3282, 1.2500000e-02, 4.8750000e-01, 4.3000000e-04
3283, 2.5000000e-02, 4.8750000e-01, 4.3000000e-04
3284, 3.7500000e-02, 4.8750000e-01, 4.3000000e-04
3285, 5.0000000e-02, 4.8750000e-01, 4.3000000e-04
3286, 6.2500000e-02, 4.8750000e-01, 4.3000000e-04
3287, 7.5000000e-02, 4.8750000e-01, 4.3000000e-04
3288, 8.7500000e-02, 4.8750000e-01, 4.3000000e-04
3289, 1.0000000e-01, 4.8750000e-01, 4.3000000e-04
3290, 1.1250000e-01, 4.8750000e-01, 4.3000000e-04
3291, 1.2500000e-01, 4.8750000e-01, 4.3000000e-04
3292, 1.3750000e-01, 4.8750000e-01, 4.3000000e-04
3293, 1.5000000e-01, 4.8750000e-01, 4.3000000e-04
3294, 1.6250000e-01, 4.8750000e-01, 4.3000000e-04
3295, 1.7500000e-01, 4.8750000e-01, 4.3000000e-04
3296, 1.8750000e-01, 4.8750000e-01, 4.3000000e-04
3297, 2.0000000e-01, 4.8750000e-01, 4.3000000e-04
3298, 2.1250000e-01, 4.8750000e-01, 4.3000000e-04
3299, 2.2500000e-01, 4.8750000e-01, 4.3000000e-04
3300, 2.3750000e-01, 4.8750000e-01, 4.3000000e-04
3301, 2.5000000e-01, 4.8750000e-01, 4.3000000e-04
3302, 2.6250000e-01, 4.8750000e-01, 4.3000000e-04
3303, 2.7500000e-01, 4.8750000e-01, 4.3000000e-04
3304, 2.8750000e-01, 4.8750000e-01, 4.3000000e-04
3305, 3.0000000e-01, 4.8750000e-01, 4.3000000e-04
3306, 3.1250000e-01, 4.8750000e-01, 4.3000000e-04
3307, 3.2500000e-01, 4.8750000e-01, 4.3000000e-04
3308, 3.3750000e-01, 4.8750000e-01, 4.3000000e-04
3309, 3.5000000e-01, 4.8750000e-01, 4.3000000e-04
3310, 3.6250000e-01, 4.8750000e-01, 4.3000000e-04
3311, 3.7500000e-01, 4.8750000e-01, 4.3000000e-04
3312, 3.8750000e-01, 4.8750000e-01, 4.3000000e-04
3313, 4.0000000e-01, 4.8750000e-01, 4.3000000e-04
3314, 4.1250000e-01, 4.8750000e-01, 4.3000000e-04
3315, 4.2500000e-01, 4.8750000e-01, 4.3000000e-04
3316, 4.3750000e-01, 4.8750000e-01, 4.3000000e-04
3317, 4.5000000e-01, 4.8750000e-01, 4.3000000e-04
3318, 4.6250000e-01, 4.8750000e-01, 4.3000000e-04
3319, 4.7500000e-01, 4.8750000e-01, 4.3000000e-04
3320, 4.8750000e-01, 4.8750000e-01, 4.3000000e-04
3321, 5.0000000e-01, 4.8750000e-01, 4.3000000e-04
3322, 0.0000000e+00, 5.0000000e-01, 4.3000000e-04
3323, 1.2500000e-02, 5.0000000e-01, 4.3000000e-04
3324, 2.5000000e-02, 5.0000000e-01, 4.3000000e-04
3325, 3.7500000e-02, 5.0000000e-01, 4.3000000e-04
3326, 5.0000000e-02, 5.0000000e-01, 4.3000000e-04
3327, 6.2500000e-02, 5.0000000e-01, 4.3000000e-04
3328, 7.5000000e-02, 5.0000000e-01, 4.3000000e-04
3329, 8.7500000e-02, 5.0000000e-01, 4.3000000e-04
3330, 1.0000000e-01, 5.0000000e-01, 4.3000000e-04
3331, 1.1250000e-01, 5.0000000e-01, 4.3000000e-04
3332, 1.2500000e-01, 5.0000000e-01, 4.3000000e-04
3333, 1.3750000e-01, 5.0000000e-01, 4.3000000e-04
3334, 1.5000000e-01, 5.0000000e-01, 4.3000000e-04
3335, 1.6250000e-01, 5.0000000e-01, 4.3000000e-04
3336, 1.7500000e-01, 5.0000000e-01, 4.3000000e-04
3337, 1.8750000e-01, 5.0000000e-01, 4.3000000e-04
3338, 2.0000000e-01, 5.0000000e-01, 4.3000000e-04
3339, 2.1250000e-01, 5.0000000e-01, 4.3000000e-04
3340, 2.2500000e-01, 5.0000000e-01, 4.3000000e-04
3341, 2.3750000e-01, 5.0000000e-01, 4.3000000e-04
3342, 2.5000000e-01, 5.0000000e-01, 4.3000000e-04
3343, 2.6250000e-01, 5.0000000e-01, 4.3000000e-04
3344, 2.7500000e-01, 5.0000000e-01, 4.3000000e-04
3345, 2.8750000e-01, 5.0000000e-01, 4.3000000e-04
3346, 3.0000000e-01, 5.0000000e-01, 4.3000000e-04
3347, 3.1250000e-01, 5.0000000e-01, 4.3000000e-04
3348, 3.2500000e-01, 5.0000000e-01, 4.3000000e-04
3349, 3.3750000e-01, 5.0000000e-01, 4.3000000e-04
3350, 3.5000000e-01, 5.0000000e-01, 4.3000000e-04
3351, 3.6250000e-01, 5.0000000e-01, 4.3000000e-04
3352, 3.7500000e-01, 5.0000000e-01, 4.3000000e-04
3353, 3.8750000e-01, 5.0000000e-01, 4.3000000e-04
3354, 4.0000000e-01, 5.0000000e-01, 4.3000000e-04
3355, 4.1250000e-01, 5.0000000e-01, 4.3000000e-04
3356, 4.2500000e-01, 5.0000000e-01, 4.3000000e-04
3357, 4.3750000e-01, 5.0000000e-01, 4.3000000e-04
3358, 4.5000000e-01, 5.0000000e-01, 4.3000000e-04
3359, 4.6250000e-01, 5.0000000e-01, 4.3000000e-04
3360, 4.7500000e-01, 5.0000000e-01, 4.3000000e-04
3361, 4.8750000e-01, 5.0000000e-01, 4.3000000e-04
3362, 5.0000000e-01, 5.0000000e-01, 4.3000000e-04
3363, 0.0000000e+00, 0.0000000e+00, 8.6000000e-04
3364, 1.2500000e-02, 0.0000000e+00, 8.6000000e-04
3365, 2.5000000e-02, 0.0000000e+00, 8.6000000e-04
3366, 3.7500000e-02, 0.0000000e+00, 8.6000000e-04
3367, 5.0000000e-02, 0.0000000e+00, 8.6000000e-04
3368, 6.2500000e-02, 0.0000000e+00, 8.6000000e-04
3369, 7.5000000e-02, 0.0000000e+00, 8.6000000e-04
3370, 8.7500000e-02, 0.0000000e+00, 8.6000000e-04
3371, 1.0000000e-01, 0.0000000e+00, 8.6000000e-04
3372, 1.1250000e-01, 0.0000000e+00, 8.6000000e-04
3373, 1.2500000e-01, 0.0000000e+00, 8.6000000e-04
3374, 1.3750000e-01, 0.0000000e+00, 8.6000000e-04
3375, 1.5000000e-01, 0.0000000e+00, 8.6000000e-04
3376, 1.6250000e-01, 0.0000000e+00, 8.6000000e-04
3377, 1.7500000e-01, 0.0000000e+00, 8.6000000e-04
3378, 1.8750000e-01, 0.0000000e+00, 8.6000000e-04
3379, 2.0000000e-01, 0.0000000e+00, 8.6000000e-04
3380, 2.1250000e-01, 0.0000000e+00, 8.6000000e-04
3381, 2.2500000e-01, 0.0000000e+00, 8.6000000e-04
3382, 2.3750000e-01, 0.0000000e+00, 8.6000000e-04
3383, 2.5000000e-01, 0.0000000e+00, 8.6000000e-04
3384, 2.6250000e-01, 0.0000000e+00, 8.6000000e-04
3385, 2.7500000e-01, 0.0000000e+00, 8.6000000e-04
3386, 2.8750000e-01, 0.0000000e+00, 8.6000000e-04
3387, 3.0000000e-01, 0.0000000e+00, 8.6000000e-04
3388, 3.1250000e-01, 0.0000000e+00, 8.6000000e-04
3389, 3.2500000e-01, 0.0000000e+00, 8.6000000e-04
3390, 3.3750000e-01, 0.0000000e+00, 8.6000000e-04
3391, 3.5000000e-01, 0.0000000e+00, 8.6000000e-04
3392, 3.6250000e-01, 0.0000000e+00, 8.6000000e-04
3393, 3.7500000e-01, 0.0000000e+00, 8.6000000e-04
3394, 3.8750000e-01, 0.0000000e+00, 8.6000000e-04
3395, 4.0000000e-01, 0.0000000e+00, 8.6000000e-04
3396, 4.1250000e-01, 0.0000000e+00, 8.6000000e-04
3397, 4.2500000e-01, 0.0000000e+00, 8.6000000e-04
3398, 4.3750000e-01, 0.0000000e+00, 8.6000000e-04
3399, 4.5000000e-01, 0.0000000e+00, 8.6000000e-04
3400, 4.6250000e-01, 0.0000000e+00, 8.6000000e-04
3401, 4.7500000e-01, 0.0000000e+00, 8.6000000e-04
3402, 4.8750000e-01, 0.0000000e+00, 8.6000000e-04
3403, 5.0000000e-01, 0.0000000e+00, 8.6000000e-04
3404, 0.0000000e+00, 1.2500000e-02, 8.6000000e-04
3405, 1.2500000e-02, 1.2500000e-02, 8.6000000e-04
3406, 2.5000000e-02, 1.2500000e-02, 8.6000000e-04
3407, 3.7500000e-02, 1.2500000e-02, 8.6000000e-04
3408, 5.0000000e-02, 1.2500000e-02, 8.6000000e-04
3409, 6.2500000e-02, 1.2500000e-02, 8.6000000e-04
3410, 7.5000000e-02, 1.2500000e-02, 8.6000000e-04
3411, 8.7500000e-02, 1.2500000e-02, 8.6000000e-04
3412, 1.0000000e-01, 1.2500000e-02, 8.6000000e-04
3413, 1.1250000e-01, 1.2500000e-02, 8.6000000e-04
3414, 1.2500000e-01, 1.2500000e-02, 8.6000000e-04
3415, 1.3750000e-01, 1.2500000e-02, 8.6000000e-04
3416, 1.5000000e-01, 1.2500000e-02, 8.6000000e-04
3417, 1.6250000e-01, 1.2500000e-02, 8.6000000e-04
3418, 1.7500000e-01, 1.2500000e-02, 8.6000000e-04
3419, 1.8750000e-01, 1.2500000e-02, 8.6000000e-04
3420, 2.0000000e-01, 1.2500000e-02, 8.6000000e-04
3421, 2.1250000e-01, 1.2500000e-02, 8.6000000e-04
3422, 2.2500000e-01, 1.2500000e-02, 8.6000000e-04
3423, 2.3750000e-01, 1.2500000e-02, 8.6000000e-04
3424, 2.5000000e-01, 1.2500000e-02, 8.6000000e-04
3425, 2.6250000e-01, 1.2500000e-02, 8.6000000e-04
3426, 2.7500000e-01, 1.2500000e-02, 8.6000000e-04
3427, 2.8750000e-01, 1.2500000e-02, 8.6000000e-04
3428, 3.0000000e-01, 1.2500000e-02, 8.6000000e-04
3429, 3.1250000e-01, 1.2500000e-02, 8.6000000e-04
3430, 3.2500000e-01, 1.2500000e-02, 8.6000000e-04
3431, 3.3750000e-01, 1.2500000e-02, 8.6000000e-04
3432, 3.5000000e-01, 1.2500000e-02, 8.6000000e-04
3433, 3.6250000e-01, 1.2500000e-02, 8.6000000e-04
3434, 3.7500000e-01, 1.2500000e-02, 8.6000000e-04
3435, 3.8750000e-01, 1.2500000e-02, 8.6000000e-04
3436, 4.0000000e-01, 1.2500000e-02, 8.6000000e-04
3437, 4.1250000e-01, 1.2500000e-02, 8.6000000e-04
3438, 4.2500000e-01, 1.2500000e-02, 8.6000000e-04
3439, 4.3750000e-01, 1.2500000e-02, 8.6000000e-04
3440, 4.5000000e-01, 1.2500000e-02, 8.6000000e-04
3441, 4.6250000e-01, 1.2500000e-02, 8.6000000e-04
3442, 4.7500000e-01, 1.2500000e-02, 8.6000000e-04
3443, 4.8750000e-01, 1.2500000e-02, 8.6000000e-04
3444, 5.0000000e-01, 1.2500000e-02, 8.6000000e-04
3445, 0.0000000e+00, 2.5000000e-02, 8.6000000e-04
3446, 1.2500000e-02, 2.5000000e-02, 8.6000000e-04
3447, 2.5000000e-02, 2.5000000e-02, 8.6000000e-04
3448, 3.7500000e-02, 2.5000000e-02, 8.6000000e-04
3449, 5.0000000e-02, 2.5000000e-02, 8.6000000e-04
3450, 6.2500000e-02, 2.5000000e-02, 8.6000000e-04
3451, 7.5000000e-02, 2.5000000e-02, 8.6000000e-04
3452, 8.7500000e-02, 2.5000000e-02, 8.6000000e-04
3453, 1.0000000e-01, 2.5000000e-02, 8.6000000e-04
3454, 1.1250000e-01, 2.5000000e-02, 8.6000000e-04
3455, 1.2500000e-01, 2.5000000e-02, 8.6000000e-04
3456, 1.3750000e-01, 2.5000000e-02, 8.6000000e-04
3457, 1.5000000e-01, 2.5000000e-02, 8.6000000e-04
3458, 1.6250000e-01, 2.5000000e-02, 8.6000000e-04
3459, 1.7500000e-01, 2.5000000e-02, 8.6000000e-04
3460, 1.8750000e-01, 2.5000000e-02, 8.6000000e-04
3461, 2.0000000e-01, 2.5000000e-02, 8.6000000e-04
3462, 2.1250000e-01, 2.5000000e-02, 8.6000000e-04
3463, 2.2500000e-01, 2.5000000e-02, 8.6000000e-04
3464, 2.3750000e-01, 2.5000000e-02, 8.6000000e-04
3465, 2.5000000e-01, 2.5000000e-02, 8.6000000e-04
3466, 2.6250000e-01, 2.5000000e-02, 8.6000000e-04
3467, 2.7500000e-01, 2.5000000e-02, 8.6000000e-04
3468, 2.8750000e-01, 2.5000000e-02, 8.6000000e-04
3469, 3.0000000e-01, 2.5000000e-02, 8.6000000e-04
3470, 3.1250000e-01, 2.5000000e-02, 8.6000000e-04
3471, 3.2500000e-01, 2.5000000e-02, 8.6000000e-04
3472, 3.3750000e-01, 2.5000000e-02, 8.6000000e-04
3473, 3.5000000e-01, 2.5000000e-02, 8.6000000e-04
3474, 3.6250000e-01, 2.5000000e-02, 8.6000000e-04
3475, 3.7500000e-01, 2.5000000e-02, 8.6000000e-04
3476, 3.8750000e-01, 2.5000000e-02, 8.6000000e-04
3477, 4.0000000e-01, 2.5000000e-02, 8.6000000e-04
3478, 4.1250000e-01, 2.5000000e-02, 8.6000000e-04
3479, 4.2500000e-01, 2.5000000e-02, 8.6000000e-04
3480, 4.3750000e-01, 2.5000000e-02, 8.6000000e-04
3481, 4.5000000e-01, 2.5000000e-02, 8.6000000e-04
3482, 4.6250000e-01, 2.5000000e-02, 8.6000000e-04
3483, 4.7500000e-01, 2.5000000e-02, 8.6000000e-04
3484, 4.8750000e-01, 2.5000000e-02, 8.6000000e-04
3485, 5.0000000e-01, 2.5000000e-02, 8.6000000e-04
3486, 0.0000000e+00, 3.7500000e-02, 8.6000000e-04
3487, 1.2500000e-02, 3.7500000e-02, 8.6000000e-04
3488, 2.5000000e-02, 3.7500000e-02, 8.6000000e-04
3489, 3.7500000e-02, 3.7500000e-02, 8.6000000e-04
3490, 5.0000000e-02, 3.7500000e-02, 8.6000000e-04
3491, 6.2500000e-02, 3.7500000e-02, 8.6000000e-04
3492, 7.5000000e-02, 3.7500000e-02, 8.6000000e-04
3493, 8.7500000e-02, 3.7500000e-02, 8.6000000e-04
3494, 1.0000000e-01, 3.7500000e-02, 8.6000000e-04
3495, 1.1250000e-01, 3.7500000e-02, 8.6000000e-04
3496, 1.2500000e-01, 3.7500000e-02, 8.6000000e-04
3497, 1.3750000e-01, 3.7500000e-02, 8.6000000e-04
3498, 1.5000000e-01, 3.7500000e-02, 8.6000000e-04
3499, 1.6250000e-01, 3.7500000e-02, 8.6000000e-04
3500, 1.7500000e-01, 3.7500000e-02, 8.6000000e-04
3501, 1.8750000e-01, 3.7500000e-02, 8.6000000e-04
3502, 2.0000000e-01, 3.7500000e-02, 8.6000000e-04
3503, 2.1250000e-01, 3.7500000e-02, 8.6000000e-04
3504, 2.2500000e-01, 3.7500000e-02, 8.6000000e-04
3505, 2.3750000e-01, 3.7500000e-02, 8.6000000e-04
3506, 2.5000000e-01, 3.7500000e-02, 8.6000000e-04
3507, 2.6250000e-01, 3.7500000e-02, 8.6000000e-04
3508, 2.7500000e-01, 3.7500000e-02, 8.6000000e-04
3509, 2.8750000e-01, 3.7500000e-02, 8.6000000e-04
3510, 3.0000000e-01, 3.7500000e-02, 8.6000000e-04
3511, 3.1250000e-01, 3.7500000e-02, 8.6000000e-04
3512, 3.2500000e-01, 3.7500000e-02, 8.6000000e-04
3513, 3.3750000e-01, 3.7500000e-02, 8.6000000e-04
3514, 3.5000000e-01, 3.7500000e-02, 8.6000000e-04
3515, 3.6250000e-01, 3.7500000e-02, 8.6000000e-04
3516, 3.7500000e-01, 3.7500000e-02, 8.6000000e-04
3517, 3.8750000e-01, 3.7500000e-02, 8.6000000e-04
3518, 4.0000000e-01, 3.7500000e-02, 8.6000000e-04
3519, 4.1250000e-01, 3.7500000e-02, 8.6000000e-04
3520, 4.2500000e-01, 3.7500000e-02, 8.6000000e-04
3521, 4.3750000e-01, 3.7500000e-02, 8.6000000e-04
3522, 4.5000000e-01, 3.7500000e-02, 8.6000000e-04
3523, 4.6250000e-01, 3.7500000e-02, 8.6000000e-04
3524, 4.7500000e-01, 3.7500000e-02, 8.6000000e-04
3525, 4.8750000e-01, 3.7500000e-02, 8.6000000e-04
3526, 5.0000000e-01, 3.7500000e-02, 8.6000000e-04
3527, 0.0000000e+00, 5.0000000e-02, 8.6000000e-04
3528, 1.2500000e-02, 5.0000000e-02, 8.6000000e-04
3529, 2.5000000e-02, 5.0000000e-02, 8.6000000e-04
3530, 3.7500000e-02, 5.0000000e-02, 8.6000000e-04
3531, 5.0000000e-02, 5.0000000e-02, 8.6000000e-04
3532, 6.2500000e-02, 5.0000000e-02, 8.6000000e-04
3533, 7.5000000e-02, 5.0000000e-02, 8.6000000e-04
3534, 8.7500000e-02, 5.0000000e-02, 8.6000000e-04
3535, 1.0000000e-01, 5.0000000e-02, 8.6000000e-04
3536, 1.1250000e-01, 5.0000000e-02, 8.6000000e-04
3537, 1.2500000e-01, 5.0000000e-02, 8.6000000e-04
3538, 1.3750000e-01, 5.0000000e-02, 8.6000000e-04
3539, 1.5000000e-01, 5.0000000e-02, 8.6000000e-04
3540, 1.6250000e-01, 5.0000000e-02, 8.6000000e-04
3541, 1.7500000e-01, 5.0000000e-02, 8.6000000e-04
3542, 1.8750000e-01, 5.0000000e-02, 8.6000000e-04
3543, 2.0000000e-01, 5.0000000e-02, 8.6000000e-04
3544, 2.1250000e-01, 5.0000000e-02, 8.6000000e-04
3545, 2.2500000e-01, 5.0000000e-02, 8.6000000e-04
3546, 2.3750000e-01, 5.0000000e-02, 8.6000000e-04
3547, 2.5000000e-01, 5.0000000e-02, 8.6000000e-04
3548, 2.6250000e-01, 5.0000000e-02, 8.6000000e-04
3549, 2.7500000e-01, 5.0000000e-02, 8.6000000e-04
3550, 2.8750000e-01, 5.0000000e-02, 8.6000000e-04
3551, 3.0000000e-01, 5.0000000e-02, 8.6000000e-04
3552, 3.1250000e-01, 5.0000000e-02, 8.6000000e-04
3553, 3.2500000e-01, 5.0000000e-02, 8.6000000e-04
3554, 3.3750000e-01, 5.0000000e-02, 8.6000000e-04
3555, 3.5000000e-01, 5.0000000e-02, 8.6000000e-04
3556, 3.6250000e-01, 5.0000000e-02, 8.6000000e-04
3557, 3.7500000e-01, 5.0000000e-02, 8.6000000e-04
3558, 3.8750000e-01, 5.0000000e-02, 8.6000000e-04
3559, 4.0000000e-01, 5.0000000e-02, 8.6000000e-04
3560, 4.1250000e-01, 5.0000000e-02, 8.6000000e-04
3561, 4.2500000e-01, 5.0000000e-02, 8.6000000e-04
3562, 4.3750000e-01, 5.0000000e-02, 8.6000000e-04
3563, 4.5000000e-01, 5.0000000e-02, 8.6000000e-04
3564, 4.6250000e-01, 5.0000000e-02, 8.6000000e-04
3565, 4.7500000e-01, 5.0000000e-02, 8.6000000e-04
3566, 4.8750000e-01, 5.0000000e-02, 8.6000000e-04
3567, 5.0000000e-01, 5.0000000e-02, 8.6000000e-04
3568, 0.0000000e+00, 6.2500000e-02, 8.6000000e-04
3569, 1.2500000e-02, 6.2500000e-02, 8.6000000e-04
3570, 2.5000000e-02, 6.2500000e-02, 8.6000000e-04
3571, 3.7500000e-02, 6.2500000e-02, 8.6000000e-04
3572, 5.0000000e-02, 6.2500000e-02, 8.6000000e-04
3573, 6.2500000e-02, 6.2500000e-02, 8.6000000e-04
3574, 7.5000000e-02, 6.2500000e-02, 8.6000000e-04
3575, 8.7500000e-02, 6.2500000e-02, 8.6000000e-04
3576, 1.0000000e-01, 6.2500000e-02, 8.6000000e-04
3577, 1.1250000e-01, 6.2500000e-02, 8.6000000e-04
3578, 1.2500000e-01, 6.2500000e-02, 8.6000000e-04
3579, 1.3750000e-01, 6.2500000e-02, 8.6000000e-04
3580, 1.5000000e-01, 6.2500000e-02, 8.6000000e-04
3581, 1.6250000e-01, 6.2500000e-02, 8.6000000e-04
3582, 1.7500000e-01, 6.2500000e-02, 8.6000000e-04
3583, 1.8750000e-01, 6.2500000e-02, 8.6000000e-04
3584, 2.0000000e-01, 6.2500000e-02, 8.6000000e-04
3585, 2.1250000e-01, 6.2500000e-02, 8.6000000e-04
3586, 2.2500000e-01, 6.2500000e-02, 8.6000000e-04
3587, 2.3750000e-01, 6.2500000e-02, 8.6000000e-04
3588, 2.5000000e-01, 6.2500000e-02, 8.6000000e-04
3589, 2.6250000e-01, 6.2500000e-02, 8.6000000e-04
3590, 2.7500000e-01, 6.2500000e-02, 8.6000000e-04
3591, 2.8750000e-01, 6.2500000e-02, 8.6000000e-04
3592, 3.0000000e-01, 6.2500000e-02, 8.6000000e-04
3593, 3.1250000e-01, 6.2500000e-02, 8.6000000e-04
3594, 3.2500000e-01, 6.2500000e-02, 8.6000000e-04
3595, 3.3750000e-01, 6.2500000e-02, 8.6000000e-04
3596, 3.5000000e-01, 6.2500000e-02, 8.6000000e-04
3597, 3.6250000e-01, 6.2500000e-02, 8.6000000e-04
3598, 3.7500000e-01, 6.2500000e-02, 8.6000000e-04
3599, 3.8750000e-01, 6.2500000e-02, 8.6000000e-04
3600, 4.0000000e-01, 6.2500000e-02, 8.6000000e-04
3601, 4.1250000e-01, 6.2500000e-02, 8.6000000e-04
3602, 4.2500000e-01, 6.2500000e-02, 8.6000000e-04
3603, 4.3750000e-01, 6.2500000e-02, 8.6000000e-04
3604, 4.5000000e-01, 6.2500000e-02, 8.6000000e-04
3605, 4.6250000e-01, 6.2500000e-02, 8.6000000e-04
3606, 4.7500000e-01, 6.2500000e-02, 8.6000000e-04
3607, 4.8750000e-01, 6.2500000e-02, 8.6000000e-04
3608, 5.0000000e-01, 6.2500000e-02, 8.6000000e-04
3609, 0.0000000e+00, 7.5000000e-02, 8.6000000e-04
3610, 1.2500000e-02, 7.5000000e-02, 8.6000000e-04
3611, 2.5000000e-02, 7.5000000e-02, 8.6000000e-04
3612, 3.7500000e-02, 7.5000000e-02, 8.6000000e-04
3613, 5.0000000e-02, 7.5000000e-02, 8.6000000e-04
3614, 6.2500000e-02, 7.5000000e-02, 8.6000000e-04
3615, 7.5000000e-02, 7.5000000e-02, 8.6000000e-04
3616, 8.7500000e-02, 7.5000000e-02, 8.6000000e-04
3617, 1.0000000e-01, 7.5000000e-02, 8.6000000e-04
3618, 1.1250000e-01, 7.5000000e-02, 8.6000000e-04
3619, 1.2500000e-01, 7.5000000e-02, 8.6000000e-04
3620, 1.3750000e-01, 7.5000000e-02, 8.6000000e-04
3621, 1.5000000e-01, 7.5000000e-02, 8.6000000e-04
3622, 1.6250000e-01, 7.5000000e-02, 8.6000000e-04
3623, 1.7500000e-01, 7.5000000e-02, 8.6000000e-04
3624, 1.8750000e-01, 7.5000000e-02, 8.6000000e-04
3625, 2.0000000e-01, 7.5000000e-02, 8.6000000e-04
3626, 2.1250000e-01, 7.5000000e-02, 8.6000000e-04
3627, 2.2500000e-01, 7.5000000e-02, 8.6000000e-04
3628, 2.3750000e-01, 7.5000000e-02, 8.6000000e-04
3629, 2.5000000e-01, 7.5000000e-02, 8.6000000e-04
3630, 2.6250000e-01, 7.5000000e-02, 8.6000000e-04
3631, 2.7500000e-01, 7.5000000e-02, 8.6000000e-04
3632, 2.8750000e-01, 7.5000000e-02, 8.6000000e-04
3633, 3.0000000e-01, 7.5000000e-02, 8.6000000e-04
3634, 3.1250000e-01, 7.5000000e-02, 8.6000000e-04
3635, 3.2500000e-01, 7.5000000e-02, 8.6000000e-04
3636, 3.3750000e-01, 7.5000000e-02, 8.6000000e-04
3637, 3.5000000e-01, 7.5000000e-02, 8.6000000e-04
3638, 3.6250000e-01, 7.5000000e-02, 8.6000000e-04
3639, 3.7500000e-01, 7.5000000e-02, 8.6000000e-04
3640, 3.8750000e-01, 7.5000000e-02, 8.6000000e-04
3641, 4.0000000e-01, 7.5000000e-02, 8.6000000e-04
3642, 4.1250000e-01, 7.5000000e-02, 8.6000000e-04
3643, 4.2500000e-01, 7.5000000e-02, 8.6000000e-04
3644, 4.3750000e-01, 7.5000000e-02, 8.6000000e-04
3645, 4.5000000e-01, 7.5000000e-02, 8.6000000e-04
3646, 4.6250000e-01, 7.5000000e-02, 8.6000000e-04
3647, 4.7500000e-01, 7.5000000e-02, 8.6000000e-04
3648, 4.8750000e-01, 7.5000000e-02, 8.6000000e-04
3649, 5.0000000e-01, 7.5000000e-02, 8.6000000e-04
3650, 0.0000000e+00, 8.7500000e-02, 8.6000000e-04
3651, 1.2500000e-02, 8.7500000e-02, 8.6000000e-04
3652, 2.5000000e-02, 8.7500000e-02, 8.6000000e-04
3653, 3.7500000e-02, 8.7500000e-02, 8.6000000e-04
3654, 5.0000000e-02, 8.7500000e-02, 8.6000000e-04
3655, 6.2500000e-02, 8.7500000e-02, 8.6000000e-04
3656, 7.5000000e-02, 8.7500000e-02, 8.6000000e-04
3657, 8.7500000e-02, 8.7500000e-02, 8.6000000e-04
3658, 1.0000000e-01, 8.7500000e-02, 8.6000000e-04
3659, 1.1250000e-01, 8.7500000e-02, 8.6000000e-04
3660, 1.2500000e-01, 8.7500000e-02, 8.6000000e-04
3661, 1.3750000e-01, 8.7500000e-02, 8.6000000e-04
3662, 1.5000000e-01, 8.7500000e-02, 8.6000000e-04
3663, 1.6250000e-01, 8.7500000e-02, 8.6000000e-04
3664, 1.7500000e-01, 8.7500000e-02, 8.6000000e-04
3665, 1.8750000e-01, 8.7500000e-02, 8.6000000e-04
3666, 2.0000000e-01, 8.7500000e-02, 8.6000000e-04
3667, 2.1250000e-01, 8.7500000e-02, 8.6000000e-04
3668, 2.2500000e-01, 8.7500000e-02, 8.6000000e-04
3669, 2.3750000e-01, 8.7500000e-02, 8.6000000e-04
3670, 2.5000000e-01, 8.7500000e-02, 8.6000000e-04
3671, 2.6250000e-01, 8.7500000e-02, 8.6000000e-04
3672, 2.7500000e-01, 8.7500000e-02, 8.6000000e-04
3673, 2.8750000e-01, 8.7500000e-02, 8.6000000e-04
3674, 3.0000000e-01, 8.7500000e-02, 8.6000000e-04
3675, 3.1250000e-01, 8.7500000e-02, 8.6000000e-04
3676, 3.2500000e-01, 8.7500000e-02, 8.6000000e-04
3677, 3.3750000e-01, 8.7500000e-02, 8.6000000e-04
3678, 3.5000000e-01, 8.7500000e-02, 8.6000000e-04
3679, 3.6250000e-01, 8.7500000e-02, 8.6000000e-04
3680, 3.7500000e-01, 8.7500000e-02, 8.6000000e-04
3681, 3.8750000e-01, 8.7500000e-02, 8.6000000e-04
3682, 4.0000000e-01, 8.7500000e-02, 8.6000000e-04
3683, 4.1250000e-01, 8.7500000e-02, 8.6000000e-04
3684, 4.2500000e-01, 8.7500000e-02, 8.6000000e-04
3685, 4.3750000e-01, 8.7500000e-02, 8.6000000e-04
3686, 4.5000000e-01, 8.7500000e-02, 8.6000000e-04
3687, 4.6250000e-01, 8.7500000e-02, 8.6000000e-04
3688, 4.7500000e-01, 8.7500000e-02, 8.6000000e-04
3689, 4.8750000e-01, 8.7500000e-02, 8.6000000e-04
3690, 5.0000000e-01, 8.7500000e-02, 8.6000000e-04
3691, 0.0000000e+00, 1.0000000e-01, 8.6000000e-04
3692, 1.2500000e-02, 1.0000000e-01, 8.6000000e-04
3693, 2.5000000e-02, 1.0000000e-01, 8.6000000e-04
3694, 3.7500000e-02, 1.0000000e-01, 8.6000000e-04
3695, 5.0000000e-02, 1.0000000e-01, 8.6000000e-04
3696, 6.2500000e-02, 1.0000000e-01, 8.6000000e-04
3697, 7.5000000e-02, 1.0000000e-01, 8.6000000e-04
3698, 8.7500000e-02, 1.0000000e-01, 8.6000000e-04
3699, 1.0000000e-01, 1.0000000e-01, 8.6000000e-04
3700, 1.1250000e-01, 1.0000000e-01, 8.6000000e-04
3701, 1.2500000e-01, 1.0000000e-01, 8.6000000e-04
3702, 1.3750000e-01, 1.0000000e-01, 8.6000000e-04
3703, 1.5000000e-01, 1.0000000e-01, 8.6000000e-04
3704, 1.6250000e-01, 1.0000000e-01, 8.6000000e-04
3705, 1.7500000e-01, 1.0000000e-01, 8.6000000e-04
3706, 1.8750000e-01, 1.0000000e-01, 8.6000000e-04
3707, 2.0000000e-01, 1.0000000e-01, 8.6000000e-04
3708, 2.1250000e-01, 1.0000000e-01, 8.6000000e-04
3709, 2.2500000e-01, 1.0000000e-01, 8.6000000e-04
3710, 2.3750000e-01, 1.0000000e-01, 8.6000000e-04
3711, 2.5000000e-01, 1.0000000e-01, 8.6000000e-04
3712, 2.6250000e-01, 1.0000000e-01, 8.6000000e-04
3713, 2.7500000e-01, 1.0000000e-01, 8.6000000e-04
3714, 2.8750000e-01, 1.0000000e-01, 8.6000000e-04
3715, 3.0000000e-01, 1.0000000e-01, 8.6000000e-04
3716, 3.1250000e-01, 1.0000000e-01, 8.6000000e-04
3717, 3.2500000e-01, 1.0000000e-01, 8.6000000e-04
3718, 3.3750000e-01, 1.0000000e-01, 8.6000000e-04
3719, 3.5000000e-01, 1.0000000e-01, 8.6000000e-04
3720, 3.6250000e-01, 1.0000000e-01, 8.6000000e-04
3721, 3.7500000e-01, 1.0000000e-01, 8.6000000e-04
3722, 3.8750000e-01, 1.0000000e-01, 8.6000000e-04
3723, 4.0000000e-01, 1.0000000e-01, 8.6000000e-04
3724, 4.1250000e-01, 1.0000000e-01, 8.6000000e-04
3725, 4.2500000e-01, 1.0000000e-01, 8.6000000e-04
3726, 4.3750000e-01, 1.0000000e-01, 8.6000000e-04
3727, 4.5000000e-01, 1.0000000e-01, 8.6000000e-04
3728, 4.6250000e-01, 1.0000000e-01, 8.6000000e-04
3729, 4.7500000e-01, 1.0000000e-01, 8.6000000e-04
3730, 4.8750000e-01, 1.0000000e-01, 8.6000000e-04
3731, 5.0000000e-01, 1.0000000e-01, 8.6000000e-04
3732, 0.0000000e+00, 1.1250000e-01, 8.6000000e-04
3733, 1.2500000e-02, 1.1250000e-01, 8.6000000e-04
3734, 2.5000000e-02, 1.1250000e-01, 8.6000000e-04
3735, 3.7500000e-02, 1.1250000e-01, 8.6000000e-04
3736, 5.0000000e-02, 1.1250000e-01, 8.6000000e-04
3737, 6.2500000e-02, 1.1250000e-01, 8.6000000e-04
3738, 7.5000000e-02, 1.1250000e-01, 8.6000000e-04
3739, 8.7500000e-02, 1.1250000e-01, 8.6000000e-04
3740, 1.0000000e-01, 1.1250000e-01, 8.6000000e-04
3741, 1.1250000e-01, 1.1250000e-01, 8.6000000e-04
3742, 1.2500000e-01, 1.1250000e-01, 8.6000000e-04
3743, 1.3750000e-01, 1.1250000e-01, 8.6000000e-04
3744, 1.5000000e-01, 1.1250000e-01, 8.6000000e-04
3745, 1.6250000e-01, 1.1250000e-01, 8.6000000e-04
3746, 1.7500000e-01, 1.1250000e-01, 8.6000000e-04
3747, 1.8750000e-01, 1.1250000e-01, 8.6000000e-04
3748, 2.0000000e-01, 1.1250000e-01, 8.6000000e-04
3749, 2.1250000e-01, 1.1250000e-01, 8.6000000e-04
3750, 2.2500000e-01, 1.1250000e-01, 8.6000000e-04
3751, 2.3750000e-01, 1.1250000e-01, 8.6000000e-04
3752, 2.5000000e-01, 1.1250000e-01, 8.6000000e-04
3753, 2.6250000e-01, 1.1250000e-01, 8.6000000e-04
3754, 2.7500000e-01, 1.1250000e-01, 8.6000000e-04
3755, 2.8750000e-01, 1.1250000e-01, 8.6000000e-04
3756, 3.0000000e-01, 1.1250000e-01, 8.6000000e-04
3757, 3.1250000e-01, 1.1250000e-01, 8.6000000e-04
3758, 3.2500000e-01, 1.1250000e-01, 8.6000000e-04
3759, 3.3750000e-01, 1.1250000e-01, 8.6000000e-04
3760, 3.5000000e-01, 1.1250000e-01, 8.6000000e-04
3761, 3.6250000e-01, 1.1250000e-01, 8.6000000e-04
3762, 3.7500000e-01, 1.1250000e-01, 8.6000000e-04
3763, 3.8750000e-01, 1.1250000e-01, 8.6000000e-04
3764, 4.0000000e-01, 1.1250000e-01, 8.6000000e-04
3765, 4.1250000e-01, 1.1250000e-01, 8.6000000e-04
3766, 4.2500000e-01, 1.1250000e-01, 8.6000000e-04
3767, 4.3750000e-01, 1.1250000e-01, 8.6000000e-04
3768, 4.5000000e-01, 1.1250000e-01, 8.6000000e-04
3769, 4.6250000e-01, 1.1250000e-01, 8.6000000e-04
3770, 4.7500000e-01, 1.1250000e-01, 8.6000000e-04
3771, 4.8750000e-01, 1.1250000e-01, 8.6000000e-04
3772, 5.0000000e-01, 1.1250000e-01, 8.6000000e-04
3773, 0.0000000e+00, 1.2500000e-01, 8.6000000e-04
3774, 1.2500000e-02, 1.2500000e-01, 8.6000000e-04
3775, 2.5000000e-02, 1.2500000e-01, 8.6000000e-04
3776, 3.7500000e-02, 1.2500000e-01, 8.6000000e-04
3777, 5.0000000e-02, 1.2500000e-01, 8.6000000e-04
3778, 6.2500000e-02, 1.2500000e-01, 8.6000000e-04
3779, 7.5000000e-02, 1.2500000e-01, 8.6000000e-04
3780, 8.7500000e-02, 1.2500000e-01, 8.6000000e-04
3781, 1.0000000e-01, 1.2500000e-01, 8.6000000e-04
3782, 1.1250000e-01, 1.2500000e-01, 8.6000000e-04
3783, 1.2500000e-01, 1.2500000e-01, 8.6000000e-04
3784, 1.3750000e-01, 1.2500000e-01, 8.6000000e-04
3785, 1.5000000e-01, 1.2500000e-01, 8.6000000e-04
3786, 1.6250000e-01, 1.2500000e-01, 8.6000000e-04
3787, 1.7500000e-01, 1.2500000e-01, 8.6000000e-04
3788, 1.8750000e-01, 1.2500000e-01, 8.6000000e-04
3789, 2.0000000e-01, 1.2500000e-01, 8.6000000e-04
3790, 2.1250000e-01, 1.2500000e-01, 8.6000000e-04
3791, 2.2500000e-01, 1.2500000e-01, 8.6000000e-04
3792, 2.3750000e-01, 1.2500000e-01, 8.6000000e-04
3793, 2.5000000e-01, 1.2500000e-01, 8.6000000e-04
3794, 2.6250000e-01, 1.2500000e-01, 8.6000000e-04
3795, 2.7500000e-01, 1.2500000e-01, 8.6000000e-04
3796, 2.8750000e-01, 1.2500000e-01, 8.6000000e-04
3797, 3.0000000e-01, 1.2500000e-01, 8.6000000e-04
3798, 3.1250000e-01, 1.2500000e-01, 8.6000000e-04
3799, 3.2500000e-01, 1.2500000e-01, 8.6000000e-04
3800, 3.3750000e-01, 1.2500000e-01, 8.6000000e-04
3801, 3.5000000e-01, 1.2500000e-01, 8.6000000e-04
3802, 3.6250000e-01, 1.2500000e-01, 8.6000000e-04
3803, 3.7500000e-01, 1.2500000e-01, 8.6000000e-04
3804, 3.8750000e-01, 1.2500000e-01, 8.6000000e-04
3805, 4.0000000e-01, 1.2500000e-01, 8.6000000e-04
3806, 4.1250000e-01, 1.2500000e-01, 8.6000000e-04
3807, 4.2500000e-01, 1.2500000e-01, 8.6000000e-04
3808, 4.3750000e-01, 1.2500000e-01, 8.6000000e-04
3809, 4.5000000e-01, 1.2500000e-01, 8.6000000e-04
3810, 4.6250000e-01, 1.2500000e-01, 8.6000000e-04
3811, 4.7500000e-01, 1.2500000e-01, 8.6000000e-04
3812, 4.8750000e-01, 1.2500000e-01, 8.6000000e-04
3813, 5.0000000e-01, 1.2500000e-01, 8.6000000e-04
3814, 0.0000000e+00, 1.3750000e-01, 8.6000000e-04
3815, 1.2500000e-02, 1.3750000e-01, 8.6000000e-04
3816, 2.5000000e-02, 1.3750000e-01, 8.6000000e-04
3817, 3.7500000e-02, 1.3750000e-01, 8.6000000e-04
3818, 5.0000000e-02, 1.3750000e-01, 8.6000000e-04
3819, 6.2500000e-02, 1.3750000e-01, 8.6000000e-04
3820, 7.5000000e-02, 1.3750000e-01, 8.6000000e-04
3821, 8.7500000e-02, 1.3750000e-01, 8.6000000e-04
3822, 1.0000000e-01, 1.3750000e-01, 8.6000000e-04
3823, 1.1250000e-01, 1.3750000e-01, 8.6000000e-04
3824, 1.2500000e-01, 1.3750000e-01, 8.6000000e-04
3825, 1.3750000e-01, 1.3750000e-01, 8.6000000e-04
3826, 1.5000000e-01, 1.3750000e-01, 8.6000000e-04
3827, 1.6250000e-01, 1.3750000e-01, 8.6000000e-04
3828, 1.7500000e-01, 1.3750000e-01, 8.6000000e-04
3829, 1.8750000e-01, 1.3750000e-01, 8.6000000e-04
3830, 2.0000000e-01, 1.3750000e-01, 8.6000000e-04
3831, 2.1250000e-01, 1.3750000e-01, 8.6000000e-04
3832, 2.2500000e-01, 1.3750000e-01, 8.6000000e-04
3833, 2.3750000e-01, 1.3750000e-01, 8.6000000e-04
3834, 2.5000000e-01, 1.3750000e-01, 8.6000000e-04
3835, 2.6250000e-01, 1.3750000e-01, 8.6000000e-04
3836, 2.7500000e-01, 1.3750000e-01, 8.6000000e-04
3837, 2.8750000e-01, 1.3750000e-01, 8.6000000e-04
3838, 3.0000000e-01, 1.3750000e-01, 8.6000000e-04
3839, 3.1250000e-01, 1.3750000e-01, 8.6000000e-04
3840, 3.2500000e-01, 1.3750000e-01, 8.6000000e-04
3841, 3.3750000e-01, 1.3750000e-01, 8.6000000e-04
3842, 3.5000000e-01, 1.3750000e-01, 8.6000000e-04
3843, 3.6250000e-01, 1.3750000e-01, 8.6000000e-04
3844, 3.7500000e-01, 1.3750000e-01, 8.6000000e-04
3845, 3.8750000e-01, 1.3750000e-01, 8.6000000e-04
3846, 4.0000000e-01, 1.3750000e-01, 8.6000000e-04
3847, 4.1250000e-01, 1.3750000e-01, 8.6000000e-04
3848, 4.2500000e-01, 1.3750000e-01, 8.6000000e-04
3849, 4.3750000e-01, 1.3750000e-01, 8.6000000e-04
3850, 4.5000000e-01, 1.3750000e-01, 8.6000000e-04
3851, 4.6250000e-01, 1.3750000e-01, 8.6000000e-04
3852, 4.7500000e-01, 1.3750000e-01, 8.6000000e-04
3853, 4.8750000e-01, 1.3750000e-01, 8.6000000e-04
3854, 5.0000000e-01, 1.3750000e-01, 8.6000000e-04
3855, 0.0000000e+00, 1.5000000e-01, 8.6000000e-04
3856, 1.2500000e-02, 1.5000000e-01, 8.6000000e-04
3857, 2.5000000e-02, 1.5000000e-01, 8.6000000e-04
3858, 3.7500000e-02, 1.5000000e-01, 8.6000000e-04
3859, 5.0000000e-02, 1.5000000e-01, 8.6000000e-04
3860, 6.2500000e-02, 1.5000000e-01, 8.6000000e-04
3861, 7.5000000e-02, 1.5000000e-01, 8.6000000e-04
3862, 8.7500000e-02, 1.5000000e-01, 8.6000000e-04
3863, 1.0000000e-01, 1.5000000e-01, 8.6000000e-04
3864, 1.1250000e-01, 1.5000000e-01, 8.6000000e-04
3865, 1.2500000e-01, 1.5000000e-01, 8.6000000e-04
3866, 1.3750000e-01, 1.5000000e-01, 8.6000000e-04
3867, 1.5000000e-01, 1.5000000e-01, 8.6000000e-04
3868, 1.6250000e-01, 1.5000000e-01, 8.6000000e-04
3869, 1.7500000e-01, 1.5000000e-01, 8.6000000e-04
3870, 1.8750000e-01, 1.5000000e-01, 8.6000000e-04
3871, 2.0000000e-01, 1.5000000e-01, 8.6000000e-04
3872, 2.1250000e-01, 1.5000000e-01, 8.6000000e-04
3873, 2.2500000e-01, 1.5000000e-01, 8.6000000e-04
3874, 2.3750000e-01, 1.5000000e-01, 8.6000000e-04
3875, 2.5000000e-01, 1.5000000e-01, 8.6000000e-04
3876, 2.6250000e-01, 1.5000000e-01, 8.6000000e-04
3877, 2.7500000e-01, 1.5000000e-01, 8.6000000e-04
3878, 2.8750000e-01, 1.5000000e-01, 8.6000000e-04
3879, 3.0000000e-01, 1.5000000e-01, 8.6000000e-04
3880, 3.1250000e-01, 1.5000000e-01, 8.6000000e-04
3881, 3.2500000e-01, 1.5000000e-01, 8.6000000e-04
3882, 3.3750000e-01, 1.5000000e-01, 8.6000000e-04
3883, 3.5000000e-01, 1.5000000e-01, 8.6000000e-04
3884, 3.6250000e-01, 1.5000000e-01, 8.6000000e-04
3885, 3.7500000e-01, 1.5000000e-01, 8.6000000e-04
3886, 3.8750000e-01, 1.5000000e-01, 8.6000000e-04
3887, 4.0000000e-01, 1.5000000e-01, 8.6000000e-04
3888, 4.1250000e-01, 1.5000000e-01, 8.6000000e-04
3889, 4.2500000e-01, 1.5000000e-01, 8.6000000e-04
3890, 4.3750000e-01, 1.5000000e-01, 8.6000000e-04
3891, 4.5000000e-01, 1.5000000e-01, 8.6000000e-04
3892, 4.6250000e-01, 1.5000000e-01, 8.6000000e-04
3893, 4.7500000e-01, 1.5000000e-01, 8.6000000e-04
3894, 4.8750000e-01, 1.5000000e-01, 8.6000000e-04
3895, 5.0000000e-01, 1.5000000e-01, 8.6000000e-04
3896, 0.0000000e+00, 1.6250000e-01, 8.6000000e-04
3897, 1.2500000e-02, 1.6250000e-01, 8.6000000e-04
3898, 2.5000000e-02, 1.6250000e-01, 8.6000000e-04
3899, 3.7500000e-02, 1.6250000e-01, 8.6000000e-04
3900, 5.0000000e-02, 1.6250000e-01, 8.6000000e-04
3901, 6.2500000e-02, 1.6250000e-01, 8.6000000e-04
3902, 7.5000000e-02, 1.6250000e-01, 8.6000000e-04
3903, 8.7500000e-02, 1.6250000e-01, 8.6000000e-04
3904, 1.0000000e-01, 1.6250000e-01, 8.6000000e-04
3905, 1.1250000e-01, 1.6250000e-01, 8.6000000e-04
3906, 1.2500000e-01, 1.6250000e-01, 8.6000000e-04
3907, 1.3750000e-01, 1.6250000e-01, 8.6000000e-04
3908, 1.5000000e-01, 1.6250000e-01, 8.6000000e-04
3909, 1.6250000e-01, 1.6250000e-01, 8.6000000e-04
3910, 1.7500000e-01, 1.6250000e-01, 8.6000000e-04
3911, 1.8750000e-01, 1.6250000e-01, 8.6000000e-04
3912, 2.0000000e-01, 1.6250000e-01, 8.6000000e-04
3913, 2.1250000e-01, 1.6250000e-01, 8.6000000e-04
3914, 2.2500000e-01, 1.6250000e-01, 8.6000000e-04
3915, 2.3750000e-01, 1.6250000e-01, 8.6000000e-04
3916, 2.5000000e-01, 1.6250000e-01, 8.6000000e-04
3917, 2.6250000e-01, 1.6250000e-01, 8.6000000e-04
3918, 2.7500000e-01, 1.6250000e-01, 8.6000000e-04
3919, 2.8750000e-01, 1.6250000e-01, 8.6000000e-04
3920, 3.0000000e-01, 1.6250000e-01, 8.6000000e-04
3921, 3.1250000e-01, 1.6250000e-01, 8.6000000e-04
3922, 3.2500000e-01, 1.6250000e-01, 8.6000000e-04
3923, 3.3750000e-01, 1.6250000e-01, 8.6000000e-04
3924, 3.5000000e-01, 1.6250000e-01, 8.6000000e-04
3925, 3.6250000e-01, 1.6250000e-01, 8.6000000e-04
3926, 3.7500000e-01, 1.6250000e-01, 8.6000000e-04
3927, 3.8750000e-01, 1.6250000e-01, 8.6000000e-04
3928, 4.0000000e-01, 1.6250000e-01, 8.6000000e-04
3929, 4.1250000e-01, 1.6250000e-01, 8.6000000e-04
3930, 4.2500000e-01, 1.6250000e-01, 8.6000000e-04
3931, 4.3750000e-01, 1.6250000e-01, 8.6000000e-04
3932, 4.5000000e-01, 1.6250000e-01, 8.6000000e-04
3933, 4.6250000e-01, 1.6250000e-01, 8.6000000e-04
3934, 4.7500000e-01, 1.6250000e-01, 8.6000000e-04
3935, 4.8750000e-01, 1.6250000e-01, 8.6000000e-04
3936, 5.0000000e-01, 1.6250000e-01, 8.6000000e-04
3937, 0.0000000e+00, 1.7500000e-01, 8.6000000e-04
3938, 1.2500000e-02, 1.7500000e-01, 8.6000000e-04
3939, 2.5000000e-02, 1.7500000e-01, 8.6000000e-04
3940, 3.7500000e-02, 1.7500000e-01, 8.6000000e-04
3941, 5.0000000e-02, 1.7500000e-01, 8.6000000e-04
3942, 6.2500000e-02, 1.7500000e-01, 8.6000000e-04
3943, 7.5000000e-02, 1.7500000e-01, 8.6000000e-04
3944, 8.7500000e-02, 1.7500000e-01, 8.6000000e-04
3945, 1.0000000e-01, 1.7500000e-01, 8.6000000e-04
3946, 1.1250000e-01, 1.7500000e-01, 8.6000000e-04
3947, 1.2500000e-01, 1.7500000e-01, 8.6000000e-04
3948, 1.3750000e-01, 1.7500000e-01, 8.6000000e-04
3949, 1.5000000e-01, 1.7500000e-01, 8.6000000e-04
3950, 1.6250000e-01, 1.7500000e-01, 8.6000000e-04
3951, 1.7500000e-01, 1.7500000e-01, 8.6000000e-04
3952, 1.8750000e-01, 1.7500000e-01, 8.6000000e-04
3953, 2.0000000e-01, 1.7500000e-01, 8.6000000e-04
3954, 2.1250000e-01, 1.7500000e-01, 8.6000000e-04
3955, 2.2500000e-01, 1.7500000e-01, 8.6000000e-04
3956, 2.3750000e-01, 1.7500000e-01, 8.6000000e-04
3957, 2.5000000e-01, 1.7500000e-01, 8.6000000e-04
3958, 2.6250000e-01, 1.7500000e-01, 8.6000000e-04
3959, 2.7500000e-01, 1.7500000e-01, 8.6000000e-04
3960, 2.8750000e-01, 1.7500000e-01, 8.6000000e-04
3961, 3.0000000e-01, 1.7500000e-01, 8.6000000e-04
3962, 3.1250000e-01, 1.7500000e-01, 8.6000000e-04
3963, 3.2500000e-01, 1.7500000e-01, 8.6000000e-04
3964, 3.3750000e-01, 1.7500000e-01, 8.6000000e-04
3965, 3.5000000e-01, 1.7500000e-01, 8.6000000e-04
3966, 3.6250000e-01, 1.7500000e-01, 8.6000000e-04
3967, 3.7500000e-01, 1.7500000e-01, 8.6000000e-04
3968, 3.8750000e-01, 1.7500000e-01, 8.6000000e-04
3969, 4.0000000e-01, 1.7500000e-01, 8.6000000e-04
3970, 4.1250000e-01, 1.7500000e-01, 8.6000000e-04
3971, 4.2500000e-01, 1.7500000e-01, 8.6000000e-04
3972, 4.3750000e-01, 1.7500000e-01, 8.6000000e-04
3973, 4.5000000e-01, 1.7500000e-01, 8.6000000e-04
3974, 4.6250000e-01, 1.7500000e-01, 8.6000000e-04
3975, 4.7500000e-01, 1.7500000e-01, 8.6000000e-04
3976, 4.8750000e-01, 1.7500000e-01, 8.6000000e-04
3977, 5.0000000e-01, 1.7500000e-01, 8.6000000e-04
3978, 0.0000000e+00, 1.8750000e-01, 8.6000000e-04
3979, 1.2500000e-02, 1.8750000e-01, 8.6000000e-04
3980, 2.5000000e-02, 1.8750000e-01, 8.6000000e-04
3981, 3.7500000e-02, 1.8750000e-01, 8.6000000e-04
3982, 5.0000000e-02, 1.8750000e-01, 8.6000000e-04
3983, 6.2500000e-02, 1.8750000e-01, 8.6000000e-04
3984, 7.5000000e-02, 1.8750000e-01, 8.6000000e-04
3985, 8.7500000e-02, 1.8750000e-01, 8.6000000e-04
3986, 1.0000000e-01, 1.8750000e-01, 8.6000000e-04
3987, 1.1250000e-01, 1.8750000e-01, 8.6000000e-04
3988, 1.2500000e-01, 1.8750000e-01, 8.6000000e-04
3989, 1.3750000e-01, 1.8750000e-01, 8.6000000e-04
3990, 1.5000000e-01, 1.8750000e-01, 8.6000000e-04
3991, 1.6250000e-01, 1.8750000e-01, 8.6000000e-04
3992, 1.7500000e-01, 1.8750000e-01, 8.6000000e-04
3993, 1.8750000e-01, 1.8750000e-01, 8.6000000e-04
3994, 2.0000000e-01, 1.8750000e-01, 8.6000000e-04
3995, 2.1250000e-01, 1.8750000e-01, 8.6000000e-04
3996, 2.2500000e-01, 1.8750000e-01, 8.6000000e-04
3997, 2.3750000e-01, 1.8750000e-01, 8.6000000e-04
3998, 2.5000000e-01, 1.8750000e-01, 8.6000000e-04
3999, 2.6250000e-01, 1.8750000e-01, 8.6000000e-04
4000, 2.7500000e-01, 1.8750000e-01, 8.6000000e-04
4001, 2.8750000e-01, 1.8750000e-01, 8.6000000e-04
4002, 3.0000000e-01, 1.8750000e-01, 8.6000000e-04
4003, 3.1250000e-01, 1.8750000e-01, 8.6000000e-04
4004, 3.2500000e-01, 1.8750000e-01, 8.6000000e-04
4005, 3.3750000e-01, 1.8750000e-01, 8.6000000e-04
4006, 3.5000000e-01, 1.8750000e-01, 8.6000000e-04
4007, 3.6250000e-01, 1.8750000e-01, 8.6000000e-04
4008, 3.7500000e-01, 1.8750000e-01, 8.6000000e-04
4009, 3.8750000e-01, 1.8750000e-01, 8.6000000e-04
4010, 4.0000000e-01, 1.8750000e-01, 8.6000000e-04
4011, 4.1250000e-01, 1.8750000e-01, 8.6000000e-04
4012, 4.2500000e-01, 1.8750000e-01, 8.6000000e-04
4013, 4.3750000e-01, 1.8750000e-01, 8.6000000e-04
4014, 4.5000000e-01, 1.8750000e-01, 8.6000000e-04
4015, 4.6250000e-01, 1.8750000e-01, 8.6000000e-04
4016, 4.7500000e-01, 1.8750000e-01, 8.6000000e-04
4017, 4.8750000e-01, 1.8750000e-01, 8.6000000e-04
4018, 5.0000000e-01, 1.8750000e-01, 8.6000000e-04
4019, 0.0000000e+00, 2.0000000e-01, 8.6000000e-04
4020, 1.2500000e-02, 2.0000000e-01, 8.6000000e-04
4021, 2.5000000e-02, 2.0000000e-01, 8.6000000e-04
4022, 3.7500000e-02, 2.0000000e-01, 8.6000000e-04
4023, 5.0000000e-02, 2.0000000e-01, 8.6000000e-04
4024, 6.2500000e-02, 2.0000000e-01, 8.6000000e-04
4025, 7.5000000e-02, 2.0000000e-01, 8.6000000e-04
4026, 8.7500000e-02, 2.0000000e-01, 8.6000000e-04
4027, 1.0000000e-01, 2.0000000e-01, 8.6000000e-04
4028, 1.1250000e-01, 2.0000000e-01, 8.6000000e-04
4029, 1.2500000e-01, 2.0000000e-01, 8.6000000e-04
4030, 1.3750000e-01, 2.0000000e-01, 8.6000000e-04
4031, 1.5000000e-01, 2.0000000e-01, 8.6000000e-04
4032, 1.6250000e-01, 2.0000000e-01, 8.6000000e-04
4033, 1.7500000e-01, 2.0000000e-01, 8.6000000e-04
4034, 1.8750000e-01, 2.0000000e-01, 8.6000000e-04
4035, 2.0000000e-01, 2.0000000e-01, 8.6000000e-04
4036, 2.1250000e-01, 2.0000000e-01, 8.6000000e-04
4037, 2.2500000e-01, 2.0000000e-01, 8.6000000e-04
4038, 2.3750000e-01, 2.0000000e-01, 8.6000000e-04
4039, 2.5000000e-01, 2.0000000e-01, 8.6000000e-04
4040, 2.6250000e-01, 2.0000000e-01, 8.6000000e-04
4041, 2.7500000e-01, 2.0000000e-01, 8.6000000e-04
4042, 2.8750000e-01, 2.0000000e-01, 8.6000000e-04
4043, 3.0000000e-01, 2.0000000e-01, 8.6000000e-04
4044, 3.1250000e-01, 2.0000000e-01, 8.6000000e-04
4045, 3.2500000e-01, 2.0000000e-01, 8.6000000e-04
4046, 3.3750000e-01, 2.0000000e-01, 8.6000000e-04
4047, 3.5000000e-01, 2.0000000e-01, 8.6000000e-04
4048, 3.6250000e-01, 2.0000000e-01, 8.6000000e-04
4049, 3.7500000e-01, 2.0000000e-01, 8.6000000e-04
4050, 3.8750000e-01, 2.0000000e-01, 8.6000000e-04
4051, 4.0000000e-01, 2.0000000e-01, 8.6000000e-04
4052, 4.1250000e-01, 2.0000000e-01, 8.6000000e-04
4053, 4.2500000e-01, 2.0000000e-01, 8.6000000e-04
4054, 4.3750000e-01, 2.0000000e-01, 8.6000000e-04
4055, 4.5000000e-01, 2.0000000e-01, 8.6000000e-04
4056, 4.6250000e-01, 2.0000000e-01, 8.6000000e-04
4057, 4.7500000e-01, 2.0000000e-01, 8.6000000e-04
4058, 4.8750000e-01, 2.0000000e-01, 8.6000000e-04
4059, 5.0000000e-01, 2.0000000e-01, 8.6000000e-04
4060, 0.0000000e+00, 2.1250000e-01, 8.6000000e-04
4061, 1.2500000e-02, 2.1250000e-01, 8.6000000e-04
4062, 2.5000000e-02, 2.1250000e-01, 8.6000000e-04
4063, 3.7500000e-02, 2.1250000e-01, 8.6000000e-04
4064, 5.0000000e-02, 2.1250000e-01, 8.6000000e-04
4065, 6.2500000e-02, 2.1250000e-01, 8.6000000e-04
4066, 7.5000000e-02, 2.1250000e-01, 8.6000000e-04
4067, 8.7500000e-02, 2.1250000e-01, 8.6000000e-04
4068, 1.0000000e-01, 2.1250000e-01, 8.6000000e-04
4069, 1.1250000e-01, 2.1250000e-01, 8.6000000e-04
4070, 1.2500000e-01, 2.1250000e-01, 8.6000000e-04
4071, 1.3750000e-01, 2.1250000e-01, 8.6000000e-04
4072, 1.5000000e-01, 2.1250000e-01, 8.6000000e-04
4073, 1.6250000e-01, 2.1250000e-01, 8.6000000e-04
4074, 1.7500000e-01, 2.1250000e-01, 8.6000000e-04
4075, 1.8750000e-01, 2.1250000e-01, 8.6000000e-04
4076, 2.0000000e-01, 2.1250000e-01, 8.6000000e-04
4077, 2.1250000e-01, 2.1250000e-01, 8.6000000e-04
4078, 2.2500000e-01, 2.1250000e-01, 8.6000000e-04
4079, 2.3750000e-01, 2.1250000e-01, 8.6000000e-04
4080, 2.5000000e-01, 2.1250000e-01, 8.6000000e-04
4081, 2.6250000e-01, 2.1250000e-01, 8.6000000e-04
4082, 2.7500000e-01, 2.1250000e-01, 8.6000000e-04
4083, 2.8750000e-01, 2.1250000e-01, 8.6000000e-04
4084, 3.0000000e-01, 2.1250000e-01, 8.6000000e-04
4085, 3.1250000e-01, 2.1250000e-01, 8.6000000e-04
4086, 3.2500000e-01, 2.1250000e-01, 8.6000000e-04
4087, 3.3750000e-01, 2.1250000e-01, 8.6000000e-04
4088, 3.5000000e-01, 2.1250000e-01, 8.6000000e-04
4089, 3.6250000e-01, 2.1250000e-01, 8.6000000e-04
4090, 3.7500000e-01, 2.1250000e-01, 8.6000000e-04
4091, 3.8750000e-01, 2.1250000e-01, 8.6000000e-04
4092, 4.0000000e-01, 2.1250000e-01, 8.6000000e-04
4093, 4.1250000e-01, 2.1250000e-01, 8.6000000e-04
4094, 4.2500000e-01, 2.1250000e-01, 8.6000000e-04
4095, 4.3750000e-01, 2.1250000e-01, 8.6000000e-04
4096, 4.5000000e-01, 2.1250000e-01, 8.6000000e-04
4097, 4.6250000e-01, 2.1250000e-01, 8.6000000e-04
4098, 4.7500000e-01, 2.1250000e-01, 8.6000000e-04
4099, 4.8750000e-01, 2.1250000e-01, 8.6000000e-04
4100, 5.0000000e-01, 2.1250000e-01, 8.6000000e-04
4101, 0.0000000e+00, 2.2500000e-01, 8.6000000e-04
4102, 1.2500000e-02, 2.2500000e-01, 8.6000000e-04
4103, 2.5000000e-02, 2.2500000e-01, 8.6000000e-04
4104, 3.7500000e-02, 2.2500000e-01, 8.6000000e-04
4105, 5.0000000e-02, 2.2500000e-01, 8.6000000e-04
4106, 6.2500000e-02, 2.2500000e-01, 8.6000000e-04
4107, 7.5000000e-02, 2.2500000e-01, 8.6000000e-04
4108, 8.7500000e-02, 2.2500000e-01, 8.6000000e-04
4109, 1.0000000e-01, 2.2500000e-01, 8.6000000e-04
4110, 1.1250000e-01, 2.2500000e-01, 8.6000000e-04
4111, 1.2500000e-01, 2.2500000e-01, 8.6000000e-04
4112, 1.3750000e-01, 2.2500000e-01, 8.6000000e-04
4113, 1.5000000e-01, 2.2500000e-01, 8.6000000e-04
4114, 1.6250000e-01, 2.2500000e-01, 8.6000000e-04
4115, 1.7500000e-01, 2.2500000e-01, 8.6000000e-04
4116, 1.8750000e-01, 2.2500000e-01, 8.6000000e-04
4117, 2.0000000e-01, 2.2500000e-01, 8.6000000e-04
4118, 2.1250000e-01, 2.2500000e-01, 8.6000000e-04
4119, 2.2500000e-01, 2.2500000e-01, 8.6000000e-04
4120, 2.3750000e-01, 2.2500000e-01, 8.6000000e-04
4121, 2.5000000e-01, 2.2500000e-01, 8.6000000e-04
4122, 2.6250000e-01, 2.2500000e-01, 8.6000000e-04
4123, 2.7500000e-01, 2.2500000e-01, 8.6000000e-04
4124, 2.8750000e-01, 2.2500000e-01, 8.6000000e-04
4125, 3.0000000e-01, 2.2500000e-01, 8.6000000e-04
4126, 3.1250000e-01, 2.2500000e-01, 8.6000000e-04
4127, 3.2500000e-01, 2.2500000e-01, 8.6000000e-04
4128, 3.3750000e-01, 2.2500000e-01, 8.6000000e-04
4129, 3.5000000e-01, 2.2500000e-01, 8.6000000e-04
4130, 3.6250000e-01, 2.2500000e-01, 8.6000000e-04
4131, 3.7500000e-01, 2.2500000e-01, 8.6000000e-04
4132, 3.8750000e-01, 2.2500000e-01, 8.6000000e-04
4133, 4.0000000e-01, 2.2500000e-01, 8.6000000e-04
4134, 4.1250000e-01, 2.2500000e-01, 8.6000000e-04
4135, 4.2500000e-01, 2.2500000e-01, 8.6000000e-04
4136, 4.3750000e-01, 2.2500000e-01, 8.6000000e-04
4137, 4.5000000e-01, 2.2500000e-01, 8.6000000e-04
4138, 4.6250000e-01, 2.2500000e-01, 8.6000000e-04
4139, 4.7500000e-01, 2.2500000e-01, 8.6000000e-04
4140, 4.8750000e-01, 2.2500000e-01, 8.6000000e-04
4141, 5.0000000e-01, 2.2500000e-01, 8.6000000e-04
4142, 0.0000000e+00, 2.3750000e-01, 8.6000000e-04
4143, 1.2500000e-02, 2.3750000e-01, 8.6000000e-04
4144, 2.5000000e-02, 2.3750000e-01, 8.6000000e-04
4145, 3.7500000e-02, 2.3750000e-01, 8.6000000e-04
4146, 5.0000000e-02, 2.3750000e-01, 8.6000000e-04
4147, 6.2500000e-02, 2.3750000e-01, 8.6000000e-04
4148, 7.5000000e-02, 2.3750000e-01, 8.6000000e-04
4149, 8.7500000e-02, 2.3750000e-01, 8.6000000e-04
4150, 1.0000000e-01, 2.3750000e-01, 8.6000000e-04
4151, 1.1250000e-01, 2.3750000e-01, 8.6000000e-04
4152, 1.2500000e-01, 2.3750000e-01, 8.6000000e-04
4153, 1.3750000e-01, 2.3750000e-01, 8.6000000e-04
4154, 1.5000000e-01, 2.3750000e-01, 8.6000000e-04
4155, 1.6250000e-01, 2.3750000e-01, 8.6000000e-04
4156, 1.7500000e-01, 2.3750000e-01, 8.6000000e-04
4157, 1.8750000e-01, 2.3750000e-01, 8.6000000e-04
4158, 2.0000000e-01, 2.3750000e-01, 8.6000000e-04
4159, 2.1250000e-01, 2.3750000e-01, 8.6000000e-04
4160, 2.2500000e-01, 2.3750000e-01, 8.6000000e-04
4161, 2.3750000e-01, 2.3750000e-01, 8.6000000e-04
4162, 2.5000000e-01, 2.3750000e-01, 8.6000000e-04
4163, 2.6250000e-01, 2.3750000e-01, 8.6000000e-04
4164, 2.7500000e-01, 2.3750000e-01, 8.6000000e-04
4165, 2.8750000e-01, 2.3750000e-01, 8.6000000e-04
4166, 3.0000000e-01, 2.3750000e-01, 8.6000000e-04
4167, 3.1250000e-01, 2.3750000e-01, 8.6000000e-04
4168, 3.2500000e-01, 2.3750000e-01, 8.6000000e-04
4169, 3.3750000e-01, 2.3750000e-01, 8.6000000e-04
4170, 3.5000000e-01, 2.3750000e-01, 8.6000000e-04
4171, 3.6250000e-01, 2.3750000e-01, 8.6000000e-04
4172, 3.7500000e-01, 2.3750000e-01, 8.6000000e-04
4173, 3.8750000e-01, 2.3750000e-01, 8.6000000e-04
4174, 4.0000000e-01, 2.3750000e-01, 8.6000000e-04
4175, 4.1250000e-01, 2.3750000e-01, 8.6000000e-04
4176, 4.2500000e-01, 2.3750000e-01, 8.6000000e-04
4177, 4.3750000e-01, 2.3750000e-01, 8.6000000e-04
4178, 4.5000000e-01, 2.3750000e-01, 8.6000000e-04
4179, 4.6250000e-01, 2.3750000e-01, 8.6000000e-04
4180, 4.7500000e-01, 2.3750000e-01, 8.6000000e-04
4181, 4.8750000e-01, 2.3750000e-01, 8.6000000e-04
4182, 5.0000000e-01, 2.3750000e-01, 8.6000000e-04
4183, 0.0000000e+00, 2.5000000e-01, 8.6000000e-04
4184, 1.2500000e-02, 2.5000000e-01, 8.6000000e-04
4185, 2.5000000e-02, 2.5000000e-01, 8.6000000e-04
4186, 3.7500000e-02, 2.5000000e-01, 8.6000000e-04
4187, 5.0000000e-02, 2.5000000e-01, 8.6000000e-04
4188, 6.2500000e-02, 2.5000000e-01, 8.6000000e-04
4189, 7.5000000e-02, 2.5000000e-01, 8.6000000e-04
4190, 8.7500000e-02, 2.5000000e-01, 8.6000000e-04
4191, 1.0000000e-01, 2.5000000e-01, 8.6000000e-04
4192, 1.1250000e-01, 2.5000000e-01, 8.6000000e-04
4193, 1.2500000e-01, 2.5000000e-01, 8.6000000e-04
4194, 1.3750000e-01, 2.5000000e-01, 8.6000000e-04
4195, 1.5000000e-01, 2.5000000e-01, 8.6000000e-04
4196, 1.6250000e-01, 2.5000000e-01, 8.6000000e-04
4197, 1.7500000e-01, 2.5000000e-01, 8.6000000e-04
4198, 1.8750000e-01, 2.5000000e-01, 8.6000000e-04
4199, 2.0000000e-01, 2.5000000e-01, 8.6000000e-04
4200, 2.1250000e-01, 2.5000000e-01, 8.6000000e-04
4201, 2.2500000e-01, 2.5000000e-01, 8.6000000e-04
4202, 2.3750000e-01, 2.5000000e-01, 8.6000000e-04
4203, 2.5000000e-01, 2.5000000e-01, 8.6000000e-04
4204, 2.6250000e-01, 2.5000000e-01, 8.6000000e-04
4205, 2.7500000e-01, 2.5000000e-01, 8.6000000e-04
4206, 2.8750000e-01, 2.5000000e-01, 8.6000000e-04
4207, 3.0000000e-01, 2.5000000e-01, 8.6000000e-04
4208, 3.1250000e-01, 2.5000000e-01, 8.6000000e-04
4209, 3.2500000e-01, 2.5000000e-01, 8.6000000e-04
4210, 3.3750000e-01, 2.5000000e-01, 8.6000000e-04
4211, 3.5000000e-01, 2.5000000e-01, 8.6000000e-04
4212, 3.6250000e-01, 2.5000000e-01, 8.6000000e-04
4213, 3.7500000e-01, 2.5000000e-01, 8.6000000e-04
4214, 3.8750000e-01, 2.5000000e-01, 8.6000000e-04
4215, 4.0000000e-01, 2.5000000e-01, 8.6000000e-04
4216, 4.1250000e-01, 2.5000000e-01, 8.6000000e-04
4217, 4.2500000e-01, 2.5000000e-01, 8.6000000e-04
4218, 4.3750000e-01, 2.5000000e-01, 8.6000000e-04
4219, 4.5000000e-01, 2.5000000e-01, 8.6000000e-04
4220, 4.6250000e-01, 2.5000000e-01, 8.6000000e-04
4221, 4.7500000e-01, 2.5000000e-01, 8.6000000e-04
4222, 4.8750000e-01, 2.5000000e-01, 8.6000000e-04
4223, 5.0000000e-01, 2.5000000e-01, 8.6000000e-04
4224, 0.0000000e+00, 2.6250000e-01, 8.6000000e-04
4225, 1.2500000e-02, 2.6250000e-01, 8.6000000e-04
4226, 2.5000000e-02, 2.6250000e-01, 8.6000000e-04
4227, 3.7500000e-02, 2.6250000e-01, 8.6000000e-04
4228, 5.0000000e-02, 2.6250000e-01, 8.6000000e-04
4229, 6.2500000e-02, 2.6250000e-01, 8.6000000e-04
4230, 7.5000000e-02, 2.6250000e-01, 8.6000000e-04
4231, 8.7500000e-02, 2.6250000e-01, 8.6000000e-04
4232, 1.0000000e-01, 2.6250000e-01, 8.6000000e-04
4233, 1.1250000e-01, 2.6250000e-01, 8.6000000e-04
4234, 1.2500000e-01, 2.6250000e-01, 8.6000000e-04
4235, 1.3750000e-01, 2.6250000e-01, 8.6000000e-04
4236, 1.5000000e-01, 2.6250000e-01, 8.6000000e-04
4237, 1.6250000e-01, 2.6250000e-01, 8.6000000e-04
4238, 1.7500000e-01, 2.6250000e-01, 8.6000000e-04
4239, 1.8750000e-01, 2.6250000e-01, 8.6000000e-04
4240, 2.0000000e-01, 2.6250000e-01, 8.6000000e-04
4241, 2.1250000e-01, 2.6250000e-01, 8.6000000e-04
4242, 2.2500000e-01, 2.6250000e-01, 8.6000000e-04
4243, 2.3750000e-01, 2.6250000e-01, 8.6000000e-04
4244, 2.5000000e-01, 2.6250000e-01, 8.6000000e-04
4245, 2.6250000e-01, 2.6250000e-01, 8.6000000e-04
4246, 2.7500000e-01, 2.6250000e-01, 8.6000000e-04
4247, 2.8750000e-01, 2.6250000e-01, 8.6000000e-04
4248, 3.0000000e-01, 2.6250000e-01, 8.6000000e-04
4249, 3.1250000e-01, 2.6250000e-01, 8.6000000e-04
4250, 3.2500000e-01, 2.6250000e-01, 8.6000000e-04
4251, 3.3750000e-01, 2.6250000e-01, 8.6000000e-04
4252, 3.5000000e-01, 2.6250000e-01, 8.6000000e-04
4253, 3.6250000e-01, 2.6250000e-01, 8.6000000e-04
4254, 3.7500000e-01, 2.6250000e-01, 8.6000000e-04
4255, 3.8750000e-01, 2.6250000e-01, 8.6000000e-04
4256, 4.0000000e-01, 2.6250000e-01, 8.6000000e-04
4257, 4.1250000e-01, 2.6250000e-01, 8.6000000e-04
4258, 4.2500000e-01, 2.6250000e-01, 8.6000000e-04
4259, 4.3750000e-01, 2.6250000e-01, 8.6000000e-04
4260, 4.5000000e-01, 2.6250000e-01, 8.6000000e-04
4261, 4.6250000e-01, 2.6250000e-01, 8.6000000e-04
4262, 4.7500000e-01, 2.6250000e-01, 8.6000000e-04
4263, 4.8750000e-01, 2.6250000e-01, 8.6000000e-04
4264, 5.0000000e-01, 2.6250000e-01, 8.6000000e-04
4265, 0.0000000e+00, 2.7500000e-01, 8.6000000e-04
4266, 1.2500000e-02, 2.7500000e-01, 8.6000000e-04
4267, 2.5000000e-02, 2.7500000e-01, 8.6000000e-04
4268, 3.7500000e-02, 2.7500000e-01, 8.6000000e-04
4269, 5.0000000e-02, 2.7500000e-01, 8.6000000e-04
4270, 6.2500000e-02, 2.7500000e-01, 8.6000000e-04
4271, 7.5000000e-02, 2.7500000e-01, 8.6000000e-04
4272, 8.7500000e-02, 2.7500000e-01, 8.6000000e-04
4273, 1.0000000e-01, 2.7500000e-01, 8.6000000e-04
4274, 1.1250000e-01, 2.7500000e-01, 8.6000000e-04
4275, 1.2500000e-01, 2.7500000e-01, 8.6000000e-04
4276, 1.3750000e-01, 2.7500000e-01, 8.6000000e-04
4277, 1.5000000e-01, 2.7500000e-01, 8.6000000e-04
4278, 1.6250000e-01, 2.7500000e-01, 8.6000000e-04
4279, 1.7500000e-01, 2.7500000e-01, 8.6000000e-04
4280, 1.8750000e-01, 2.7500000e-01, 8.6000000e-04
4281, 2.0000000e-01, 2.7500000e-01, 8.6000000e-04
4282, 2.1250000e-01, 2.7500000e-01, 8.6000000e-04
4283, 2.2500000e-01, 2.7500000e-01, 8.6000000e-04
4284, 2.3750000e-01, 2.7500000e-01, 8.6000000e-04
4285, 2.5000000e-01, 2.7500000e-01, 8.6000000e-04
4286, 2.6250000e-01, 2.7500000e-01, 8.6000000e-04
4287, 2.7500000e-01, 2.7500000e-01, 8.6000000e-04
4288, 2.8750000e-01, 2.7500000e-01, 8.6000000e-04
4289, 3.0000000e-01, 2.7500000e-01, 8.6000000e-04
4290, 3.1250000e-01, 2.7500000e-01, 8.6000000e-04
4291, 3.2500000e-01, 2.7500000e-01, 8.6000000e-04
4292, 3.3750000e-01, 2.7500000e-01, 8.6000000e-04
4293, 3.5000000e-01, 2.7500000e-01, 8.6000000e-04
4294, 3.6250000e-01, 2.7500000e-01, 8.6000000e-04
4295, 3.7500000e-01, 2.7500000e-01, 8.6000000e-04
4296, 3.8750000e-01, 2.7500000e-01, 8.6000000e-04
4297, 4.0000000e-01, 2.7500000e-01, 8.6000000e-04
4298, 4.1250000e-01, 2.7500000e-01, 8.6000000e-04
4299, 4.2500000e-01, 2.7500000e-01, 8.6000000e-04
4300, 4.3750000e-01, 2.7500000e-01, 8.6000000e-04
4301, 4.5000000e-01, 2.7500000e-01, 8.6000000e-04
4302, 4.6250000e-01, 2.7500000e-01, 8.6000000e-04
4303, 4.7500000e-01, 2.7500000e-01, 8.6000000e-04
4304, 4.8750000e-01, 2.7500000e-01, 8.6000000e-04
4305, 5.0000000e-01, 2.7500000e-01, 8.6000000e-04
4306, 0.0000000e+00, 2.8750000e-01, 8.6000000e-04
4307, 1.2500000e-02, 2.8750000e-01, 8.6000000e-04
4308, 2.5000000e-02, 2.8750000e-01, 8.6000000e-04
4309, 3.7500000e-02, 2.8750000e-01, 8.6000000e-04
4310, 5.0000000e-02, 2.8750000e-01, 8.6000000e-04
4311, 6.2500000e-02, 2.8750000e-01, 8.6000000e-04
4312, 7.5000000e-02, 2.8750000e-01, 8.6000000e-04
4313, 8.7500000e-02, 2.8750000e-01, 8.6000000e-04
4314, 1.0000000e-01, 2.8750000e-01, 8.6000000e-04
4315, 1.1250000e-01, 2.8750000e-01, 8.6000000e-04
4316, 1.2500000e-01, 2.8750000e-01, 8.6000000e-04
4317, 1.3750000e-01, 2.8750000e-01, 8.6000000e-04
4318, 1.5000000e-01, 2.8750000e-01, 8.6000000e-04
4319, 1.6250000e-01, 2.8750000e-01, 8.6000000e-04
4320, 1.7500000e-01, 2.8750000e-01, 8.6000000e-04
4321, 1.8750000e-01, 2.8750000e-01, 8.6000000e-04
4322, 2.0000000e-01, 2.8750000e-01, 8.6000000e-04
4323, 2.1250000e-01, 2.8750000e-01, 8.6000000e-04
4324, 2.2500000e-01, 2.8750000e-01, 8.6000000e-04
4325, 2.3750000e-01, 2.8750000e-01, 8.6000000e-04
4326, 2.5000000e-01, 2.8750000e-01, 8.6000000e-04
4327, 2.6250000e-01, 2.8750000e-01, 8.6000000e-04
4328, 2.7500000e-01, 2.8750000e-01, 8.6000000e-04
4329, 2.8750000e-01, 2.8750000e-01, 8.6000000e-04
4330, 3.0000000e-01, 2.8750000e-01, 8.6000000e-04
4331, 3.1250000e-01, 2.8750000e-01, 8.6000000e-04
4332, 3.2500000e-01, 2.8750000e-01, 8.6000000e-04
4333, 3.3750000e-01, 2.8750000e-01, 8.6000000e-04
4334, 3.5000000e-01, 2.8750000e-01, 8.6000000e-04
4335, 3.6250000e-01, 2.8750000e-01, 8.6000000e-04
4336, 3.7500000e-01, 2.8750000e-01, 8.6000000e-04
4337, 3.8750000e-01, 2.8750000e-01, 8.6000000e-04
4338, 4.0000000e-01, 2.8750000e-01, 8.6000000e-04
4339, 4.1250000e-01, 2.8750000e-01, 8.6000000e-04
4340, 4.2500000e-01, 2.8750000e-01, 8.6000000e-04
4341, 4.3750000e-01, 2.8750000e-01, 8.6000000e-04
4342, 4.5000000e-01, 2.8750000e-01, 8.6000000e-04
4343, 4.6250000e-01, 2.8750000e-01, 8.6000000e-04
4344, 4.7500000e-01, 2.8750000e-01, 8.6000000e-04
4345, 4.8750000e-01, 2.8750000e-01, 8.6000000e-04
4346, 5.0000000e-01, 2.8750000e-01, 8.6000000e-04
4347, 0.0000000e+00, 3.0000000e-01, 8.6000000e-04
4348, 1.2500000e-02, 3.0000000e-01, 8.6000000e-04
4349, 2.5000000e-02, 3.0000000e-01, 8.6000000e-04
4350, 3.7500000e-02, 3.0000000e-01, 8.6000000e-04
4351, 5.0000000e-02, 3.0000000e-01, 8.6000000e-04
4352, 6.2500000e-02, 3.0000000e-01, 8.6000000e-04
4353, 7.5000000e-02, 3.0000000e-01, 8.6000000e-04
4354, 8.7500000e-02, 3.0000000e-01, 8.6000000e-04
4355, 1.0000000e-01, 3.0000000e-01, 8.6000000e-04
4356, 1.1250000e-01, 3.0000000e-01, 8.6000000e-04
4357, 1.2500000e-01, 3.0000000e-01, 8.6000000e-04
4358, 1.3750000e-01, 3.0000000e-01, 8.6000000e-04
4359, 1.5000000e-01, 3.0000000e-01, 8.6000000e-04
4360, 1.6250000e-01, 3.0000000e-01, 8.6000000e-04
4361, 1.7500000e-01, 3.0000000e-01, 8.6000000e-04
4362, 1.8750000e-01, 3.0000000e-01, 8.6000000e-04
4363, 2.0000000e-01, 3.0000000e-01, 8.6000000e-04
4364, 2.1250000e-01, 3.0000000e-01, 8.6000000e-04
4365, 2.2500000e-01, 3.0000000e-01, 8.6000000e-04
4366, 2.3750000e-01, 3.0000000e-01, 8.6000000e-04
4367, 2.5000000e-01, 3.0000000e-01, 8.6000000e-04
4368, 2.6250000e-01, 3.0000000e-01, 8.6000000e-04
4369, 2.7500000e-01, 3.0000000e-01, 8.6000000e-04
4370, 2.8750000e-01, 3.0000000e-01, 8.6000000e-04
4371, 3.0000000e-01, 3.0000000e-01, 8.6000000e-04
4372, 3.1250000e-01, 3.0000000e-01, 8.6000000e-04
4373, 3.2500000e-01, 3.0000000e-01, 8.6000000e-04
4374, 3.3750000e-01, 3.0000000e-01, 8.6000000e-04
4375, 3.5000000e-01, 3.0000000e-01, 8.6000000e-04
4376, 3.6250000e-01, 3.0000000e-01, 8.6000000e-04
4377, 3.7500000e-01, 3.0000000e-01, 8.6000000e-04
4378, 3.8750000e-01, 3.0000000e-01, 8.6000000e-04
4379, 4.0000000e-01, 3.0000000e-01, 8.6000000e-04
4380, 4.1250000e-01, 3.0000000e-01, 8.6000000e-04
4381, 4.2500000e-01, 3.0000000e-01, 8.6000000e-04
4382, 4.3750000e-01, 3.0000000e-01, 8.6000000e-04
4383, 4.5000000e-01, 3.0000000e-01, 8.6000000e-04
4384, 4.6250000e-01, 3.0000000e-01, 8.6000000e-04
4385, 4.7500000e-01, 3.0000000e-01, 8.6000000e-04
4386, 4.8750000e-01, 3.0000000e-01, 8.6000000e-04
4387, 5.0000000e-01, 3.0000000e-01, 8.6000000e-04
4388, 0.0000000e+00, 3.1250000e-01, 8.6000000e-04
4389, 1.2500000e-02, 3.1250000e-01, 8.6000000e-04
4390, 2.5000000e-02, 3.1250000e-01, 8.6000000e-04
4391, 3.7500000e-02, 3.1250000e-01, 8.6000000e-04
4392, 5.0000000e-02, 3.1250000e-01, 8.6000000e-04
4393, 6.2500000e-02, 3.1250000e-01, 8.6000000e-04
4394, 7.5000000e-02, 3.1250000e-01, 8.6000000e-04
4395, 8.7500000e-02, 3.1250000e-01, 8.6000000e-04
4396, 1.0000000e-01, 3.1250000e-01, 8.6000000e-04
4397, 1.1250000e-01, 3.1250000e-01, 8.6000000e-04
4398, 1.2500000e-01, 3.1250000e-01, 8.6000000e-04
4399, 1.3750000e-01, 3.1250000e-01, 8.6000000e-04
4400, 1.5000000e-01, 3.1250000e-01, 8.6000000e-04
4401, 1.6250000e-01, 3.1250000e-01, 8.6000000e-04
4402, 1.7500000e-01, 3.1250000e-01, 8.6000000e-04
4403, 1.8750000e-01, 3.1250000e-01, 8.6000000e-04
4404, 2.0000000e-01, 3.1250000e-01, 8.6000000e-04
4405, 2.1250000e-01, 3.1250000e-01, 8.6000000e-04
4406, 2.2500000e-01, 3.1250000e-01, 8.6000000e-04
4407, 2.3750000e-01, 3.1250000e-01, 8.6000000e-04
4408, 2.5000000e-01, 3.1250000e-01, 8.6000000e-04
4409, 2.6250000e-01, 3.1250000e-01, 8.6000000e-04
4410, 2.7500000e-01, 3.1250000e-01, 8.6000000e-04
4411, 2.8750000e-01, 3.1250000e-01, 8.6000000e-04
4412, 3.0000000e-01, 3.1250000e-01, 8.6000000e-04
4413, 3.1250000e-01, 3.1250000e-01, 8.6000000e-04
4414, 3.2500000e-01, 3.1250000e-01, 8.6000000e-04
4415, 3.3750000e-01, 3.1250000e-01, 8.6000000e-04
4416, 3.5000000e-01, 3.1250000e-01, 8.6000000e-04
4417, 3.6250000e-01, 3.1250000e-01, 8.6000000e-04
4418, 3.7500000e-01, 3.1250000e-01, 8.6000000e-04
4419, 3.8750000e-01, 3.1250000e-01, 8.6000000e-04
4420, 4.0000000e-01, 3.1250000e-01, 8.6000000e-04
4421, 4.1250000e-01, 3.1250000e-01, 8.6000000e-04
4422, 4.2500000e-01, 3.1250000e-01, 8.6000000e-04
4423, 4.3750000e-01, 3.1250000e-01, 8.6000000e-04
4424, 4.5000000e-01, 3.1250000e-01, 8.6000000e-04
4425, 4.6250000e-01, 3.1250000e-01, 8.6000000e-04
4426, 4.7500000e-01, 3.1250000e-01, 8.6000000e-04
4427, 4.8750000e-01, 3.1250000e-01, 8.6000000e-04
4428, 5.0000000e-01, 3.1250000e-01, 8.6000000e-04
4429, 0.0000000e+00, 3.2500000e-01, 8.6000000e-04
4430, 1.2500000e-02, 3.2500000e-01, 8.6000000e-04
4431, 2.5000000e-02, 3.2500000e-01, 8.6000000e-04
4432, 3.7500000e-02, 3.2500000e-01, 8.6000000e-04
4433, 5.0000000e-02, 3.2500000e-01, 8.6000000e-04
4434, 6.2500000e-02, 3.2500000e-01, 8.6000000e-04
4435, 7.5000000e-02, 3.2500000e-01, 8.6000000e-04
4436, 8.7500000e-02, 3.2500000e-01, 8.6000000e-04
4437, 1.0000000e-01, 3.2500000e-01, 8.6000000e-04
4438, 1.1250000e-01, 3.2500000e-01, 8.6000000e-04
4439, 1.2500000e-01, 3.2500000e-01, 8.6000000e-04
4440, 1.3750000e-01, 3.2500000e-01, 8.6000000e-04
4441, 1.5000000e-01, 3.2500000e-01, 8.6000000e-04
4442, 1.6250000e-01, 3.2500000e-01, 8.6000000e-04
4443, 1.7500000e-01, 3.2500000e-01, 8.6000000e-04
4444, 1.8750000e-01, 3.2500000e-01, 8.6000000e-04
4445, 2.0000000e-01, 3.2500000e-01, 8.6000000e-04
4446, 2.1250000e-01, 3.2500000e-01, 8.6000000e-04
4447, 2.2500000e-01, 3.2500000e-01, 8.6000000e-04
4448, 2.3750000e-01, 3.2500000e-01, 8.6000000e-04
4449, 2.5000000e-01, 3.2500000e-01, 8.6000000e-04
4450, 2.6250000e-01, 3.2500000e-01, 8.6000000e-04
4451, 2.7500000e-01, 3.2500000e-01, 8.6000000e-04
4452, 2.8750000e-01, 3.2500000e-01, 8.6000000e-04
4453, 3.0000000e-01, 3.2500000e-01, 8.6000000e-04
4454, 3.1250000e-01, 3.2500000e-01, 8.6000000e-04
4455, 3.2500000e-01, 3.2500000e-01, 8.6000000e-04
4456, 3.3750000e-01, 3.2500000e-01, 8.6000000e-04
4457, 3.5000000e-01, 3.2500000e-01, 8.6000000e-04
4458, 3.6250000e-01, 3.2500000e-01, 8.6000000e-04
4459, 3.7500000e-01, 3.2500000e-01, 8.6000000e-04
4460, 3.8750000e-01, 3.2500000e-01, 8.6000000e-04
4461, 4.0000000e-01, 3.2500000e-01, 8.6000000e-04
4462, 4.1250000e-01, 3.2500000e-01, 8.6000000e-04
4463, 4.2500000e-01, 3.2500000e-01, 8.6000000e-04
4464, 4.3750000e-01, 3.2500000e-01, 8.6000000e-04
4465, 4.5000000e-01, 3.2500000e-01, 8.6000000e-04
4466, 4.6250000e-01, 3.2500000e-01, 8.6000000e-04
4467, 4.7500000e-01, 3.2500000e-01, 8.6000000e-04
4468, 4.8750000e-01, 3.2500000e-01, 8.6000000e-04
4469, 5.0000000e-01, 3.2500000e-01, 8.6000000e-04
4470, 0.0000000e+00, 3.3750000e-01, 8.6000000e-04
4471, 1.2500000e-02, 3.3750000e-01, 8.6000000e-04
4472, 2.5000000e-02, 3.3750000e-01, 8.6000000e-04
4473, 3.7500000e-02, 3.3750000e-01, 8.6000000e-04
4474, 5.0000000e-02, 3.3750000e-01, 8.6000000e-04
4475, 6.2500000e-02, 3.3750000e-01, 8.6000000e-04
4476, 7.5000000e-02, 3.3750000e-01, 8.6000000e-04
4477, 8.7500000e-02, 3.3750000e-01, 8.6000000e-04
4478, 1.0000000e-01, 3.3750000e-01, 8.6000000e-04
4479, 1.1250000e-01, 3.3750000e-01, 8.6000000e-04
4480, 1.2500000e-01, 3.3750000e-01, 8.6000000e-04
4481, 1.3750000e-01, 3.3750000e-01, 8.6000000e-04
4482, 1.5000000e-01, 3.3750000e-01, 8.6000000e-04
4483, 1.6250000e-01, 3.3750000e-01, 8.6000000e-04
4484, 1.7500000e-01, 3.3750000e-01, 8.6000000e-04
4485, 1.8750000e-01, 3.3750000e-01, 8.6000000e-04
4486, 2.0000000e-01, 3.3750000e-01, 8.6000000e-04
4487, 2.1250000e-01, 3.3750000e-01, 8.6000000e-04
4488, 2.2500000e-01, 3.3750000e-01, 8.6000000e-04
4489, 2.3750000e-01, 3.3750000e-01, 8.6000000e-04
4490, 2.5000000e-01, 3.3750000e-01, 8.6000000e-04
4491, 2.6250000e-01, 3.3750000e-01, 8.6000000e-04
4492, 2.7500000e-01, 3.3750000e-01, 8.6000000e-04
4493, 2.8750000e-01, 3.3750000e-01, 8.6000000e-04
4494, 3.0000000e-01, 3.3750000e-01, 8.6000000e-04
4495, 3.1250000e-01, 3.3750000e-01, 8.6000000e-04
4496, 3.2500000e-01, 3.3750000e-01, 8.6000000e-04
4497, 3.3750000e-01, 3.3750000e-01, 8.6000000e-04
4498, 3.5000000e-01, 3.3750000e-01, 8.6000000e-04
4499, 3.6250000e-01, 3.3750000e-01, 8.6000000e-04
4500, 3.7500000e-01, 3.3750000e-01, 8.6000000e-04
4501, 3.8750000e-01, 3.3750000e-01, 8.6000000e-04
4502, 4.0000000e-01, 3.3750000e-01, 8.6000000e-04
4503, 4.1250000e-01, 3.3750000e-01, 8.6000000e-04
4504, 4.2500000e-01, 3.3750000e-01, 8.6000000e-04
4505, 4.3750000e-01, 3.3750000e-01, 8.6000000e-04
4506, 4.5000000e-01, 3.3750000e-01, 8.6000000e-04
4507, 4.6250000e-01, 3.3750000e-01, 8.6000000e-04
4508, 4.7500000e-01, 3.3750000e-01, 8.6000000e-04
4509, 4.8750000e-01, 3.3750000e-01, 8.6000000e-04
4510, 5.0000000e-01, 3.3750000e-01, 8.6000000e-04
4511, 0.0000000e+00, 3.5000000e-01, 8.6000000e-04
4512, 1.2500000e-02, 3.5000000e-01, 8.6000000e-04
4513, 2.5000000e-02, 3.5000000e-01, 8.6000000e-04
4514, 3.7500000e-02, 3.5000000e-01, 8.6000000e-04
4515, 5.0000000e-02, 3.5000000e-01, 8.6000000e-04
4516, 6.2500000e-02, 3.5000000e-01, 8.6000000e-04
4517, 7.5000000e-02, 3.5000000e-01, 8.6000000e-04
4518, 8.7500000e-02, 3.5000000e-01, 8.6000000e-04
4519, 1.0000000e-01, 3.5000000e-01, 8.6000000e-04
4520, 1.1250000e-01, 3.5000000e-01, 8.6000000e-04
4521, 1.2500000e-01, 3.5000000e-01, 8.6000000e-04
4522, 1.3750000e-01, 3.5000000e-01, 8.6000000e-04
4523, 1.5000000e-01, 3.5000000e-01, 8.6000000e-04
4524, 1.6250000e-01, 3.5000000e-01, 8.6000000e-04
4525, 1.7500000e-01, 3.5000000e-01, 8.6000000e-04
4526, 1.8750000e-01, 3.5000000e-01, 8.6000000e-04
4527, 2.0000000e-01, 3.5000000e-01, 8.6000000e-04
4528, 2.1250000e-01, 3.5000000e-01, 8.6000000e-04
4529, 2.2500000e-01, 3.5000000e-01, 8.6000000e-04
4530, 2.3750000e-01, 3.5000000e-01, 8.6000000e-04
4531, 2.5000000e-01, 3.5000000e-01, 8.6000000e-04
4532, 2.6250000e-01, 3.5000000e-01, 8.6000000e-04
4533, 2.7500000e-01, 3.5000000e-01, 8.6000000e-04
4534, 2.8750000e-01, 3.5000000e-01, 8.6000000e-04
4535, 3.0000000e-01, 3.5000000e-01, 8.6000000e-04
4536, 3.1250000e-01, 3.5000000e-01, 8.6000000e-04
4537, 3.2500000e-01, 3.5000000e-01, 8.6000000e-04
4538, 3.3750000e-01, 3.5000000e-01, 8.6000000e-04
4539, 3.5000000e-01, 3.5000000e-01, 8.6000000e-04
4540, 3.6250000e-01, 3.5000000e-01, 8.6000000e-04
4541, 3.7500000e-01, 3.5000000e-01, 8.6000000e-04
4542, 3.8750000e-01, 3.5000000e-01, 8.6000000e-04
4543, 4.0000000e-01, 3.5000000e-01, 8.6000000e-04
4544, 4.1250000e-01, 3.5000000e-01, 8.6000000e-04
4545, 4.2500000e-01, 3.5000000e-01, 8.6000000e-04
4546, 4.3750000e-01, 3.5000000e-01, 8.6000000e-04
4547, 4.5000000e-01, 3.5000000e-01, 8.6000000e-04
4548, 4.6250000e-01, 3.5000000e-01, 8.6000000e-04
4549, 4.7500000e-01, 3.5000000e-01, 8.6000000e-04
4550, 4.8750000e-01, 3.5000000e-01, 8.6000000e-04
4551, 5.0000000e-01, 3.5000000e-01, 8.6000000e-04
4552, 0.0000000e+00, 3.6250000e-01, 8.6000000e-04
4553, 1.2500000e-02, 3.6250000e-01, 8.6000000e-04
4554, 2.5000000e-02, 3.6250000e-01, 8.6000000e-04
4555, 3.7500000e-02, 3.6250000e-01, 8.6000000e-04
4556, 5.0000000e-02, 3.6250000e-01, 8.6000000e-04
4557, 6.2500000e-02, 3.6250000e-01, 8.6000000e-04
4558, 7.5000000e-02, 3.6250000e-01, 8.6000000e-04
4559, 8.7500000e-02, 3.6250000e-01, 8.6000000e-04
4560, 1.0000000e-01, 3.6250000e-01, 8.6000000e-04
4561, 1.1250000e-01, 3.6250000e-01, 8.6000000e-04
4562, 1.2500000e-01, 3.6250000e-01, 8.6000000e-04
4563, 1.3750000e-01, 3.6250000e-01, 8.6000000e-04
4564, 1.5000000e-01, 3.6250000e-01, 8.6000000e-04
4565, 1.6250000e-01, 3.6250000e-01, 8.6000000e-04
4566, 1.7500000e-01, 3.6250000e-01, 8.6000000e-04
4567, 1.8750000e-01, 3.6250000e-01, 8.6000000e-04
4568, 2.0000000e-01, 3.6250000e-01, 8.6000000e-04
4569, 2.1250000e-01, 3.6250000e-01, 8.6000000e-04
4570, 2.2500000e-01, 3.6250000e-01, 8.6000000e-04
4571, 2.3750000e-01, 3.6250000e-01, 8.6000000e-04
4572, 2.5000000e-01, 3.6250000e-01, 8.6000000e-04
4573, 2.6250000e-01, 3.6250000e-01, 8.6000000e-04
4574, 2.7500000e-01, 3.6250000e-01, 8.6000000e-04
4575, 2.8750000e-01, 3.6250000e-01, 8.6000000e-04
4576, 3.0000000e-01, 3.6250000e-01, 8.6000000e-04
4577, 3.1250000e-01, 3.6250000e-01, 8.6000000e-04
4578, 3.2500000e-01, 3.6250000e-01, 8.6000000e-04
4579, 3.3750000e-01, 3.6250000e-01, 8.6000000e-04
4580, 3.5000000e-01, 3.6250000e-01, 8.6000000e-04
4581, 3.6250000e-01, 3.6250000e-01, 8.6000000e-04
4582, 3.7500000e-01, 3.6250000e-01, 8.6000000e-04
4583, 3.8750000e-01, 3.6250000e-01, 8.6000000e-04
4584, 4.0000000e-01, 3.6250000e-01, 8.6000000e-04
4585, 4.1250000e-01, 3.6250000e-01, 8.6000000e-04
4586, 4.2500000e-01, 3.6250000e-01, 8.6000000e-04
4587, 4.3750000e-01, 3.6250000e-01, 8.6000000e-04
4588, 4.5000000e-01, 3.6250000e-01, 8.6000000e-04
4589, 4.6250000e-01, 3.6250000e-01, 8.6000000e-04
4590, 4.7500000e-01, 3.6250000e-01, 8.6000000e-04
4591, 4.8750000e-01, 3.6250000e-01, 8.6000000e-04
4592, 5.0000000e-01, 3.6250000e-01, 8.6000000e-04
4593, 0.0000000e+00, 3.7500000e-01, 8.6000000e-04
4594, 1.2500000e-02, 3.7500000e-01, 8.6000000e-04
4595, 2.5000000e-02, 3.7500000e-01, 8.6000000e-04
4596, 3.7500000e-02, 3.7500000e-01, 8.6000000e-04
4597, 5.0000000e-02, 3.7500000e-01, 8.6000000e-04
4598, 6.2500000e-02, 3.7500000e-01, 8.6000000e-04
4599, 7.5000000e-02, 3.7500000e-01, 8.6000000e-04
4600, 8.7500000e-02, 3.7500000e-01, 8.6000000e-04
4601, 1.0000000e-01, 3.7500000e-01, 8.6000000e-04
4602, 1.1250000e-01, 3.7500000e-01, 8.6000000e-04
4603, 1.2500000e-01, 3.7500000e-01, 8.6000000e-04
4604, 1.3750000e-01, 3.7500000e-01, 8.6000000e-04
4605, 1.5000000e-01, 3.7500000e-01, 8.6000000e-04
4606, 1.6250000e-01, 3.7500000e-01, 8.6000000e-04
4607, 1.7500000e-01, 3.7500000e-01, 8.6000000e-04
4608, 1.8750000e-01, 3.7500000e-01, 8.6000000e-04
4609, 2.0000000e-01, 3.7500000e-01, 8.6000000e-04
4610, 2.1250000e-01, 3.7500000e-01, 8.6000000e-04
4611, 2.2500000e-01, 3.7500000e-01, 8.6000000e-04
4612, 2.3750000e-01, 3.7500000e-01, 8.6000000e-04
4613, 2.5000000e-01, 3.7500000e-01, 8.6000000e-04
4614, 2.6250000e-01, 3.7500000e-01, 8.6000000e-04
4615, 2.7500000e-01, 3.7500000e-01, 8.6000000e-04
4616, 2.8750000e-01, 3.7500000e-01, 8.6000000e-04
4617, 3.0000000e-01, 3.7500000e-01, 8.6000000e-04
4618, 3.1250000e-01, 3.7500000e-01, 8.6000000e-04
4619, 3.2500000e-01, 3.7500000e-01, 8.6000000e-04
4620, 3.3750000e-01, 3.7500000e-01, 8.6000000e-04
4621, 3.5000000e-01, 3.7500000e-01, 8.6000000e-04
4622, 3.6250000e-01, 3.7500000e-01, 8.6000000e-04
4623, 3.7500000e-01, 3.7500000e-01, 8.6000000e-04
4624, 3.8750000e-01, 3.7500000e-01, 8.6000000e-04
4625, 4.0000000e-01, 3.7500000e-01, 8.6000000e-04
4626, 4.1250000e-01, 3.7500000e-01, 8.6000000e-04
4627, 4.2500000e-01, 3.7500000e-01, 8.6000000e-04
4628, 4.3750000e-01, 3.7500000e-01, 8.6000000e-04
4629, 4.5000000e-01, 3.7500000e-01, 8.6000000e-04
4630, 4.6250000e-01, 3.7500000e-01, 8.6000000e-04
4631, 4.7500000e-01, 3.7500000e-01, 8.6000000e-04
4632, 4.8750000e-01, 3.7500000e-01, 8.6000000e-04
4633, 5.0000000e-01, 3.7500000e-01, 8.6000000e-04
4634, 0.0000000e+00, 3.8750000e-01, 8.6000000e-04
4635, 1.2500000e-02, 3.8750000e-01, 8.6000000e-04
4636, 2.5000000e-02, 3.8750000e-01, 8.6000000e-04
4637, 3.7500000e-02, 3.8750000e-01, 8.6000000e-04
4638, 5.0000000e-02, 3.8750000e-01, 8.6000000e-04
4639, 6.2500000e-02, 3.8750000e-01, 8.6000000e-04
4640, 7.5000000e-02, 3.8750000e-01, 8.6000000e-04
4641, 8.7500000e-02, 3.8750000e-01, 8.6000000e-04
4642, 1.0000000e-01, 3.8750000e-01, 8.6000000e-04
4643, 1.1250000e-01, 3.8750000e-01, 8.6000000e-04
4644, 1.2500000e-01, 3.8750000e-01, 8.6000000e-04
4645, 1.3750000e-01, 3.8750000e-01, 8.6000000e-04
4646, 1.5000000e-01, 3.8750000e-01, 8.6000000e-04
4647, 1.6250000e-01, 3.8750000e-01, 8.6000000e-04
4648, 1.7500000e-01, 3.8750000e-01, 8.6000000e-04
4649, 1.8750000e-01, 3.8750000e-01, 8.6000000e-04
4650, 2.0000000e-01, 3.8750000e-01, 8.6000000e-04
4651, 2.1250000e-01, 3.8750000e-01, 8.6000000e-04
4652, 2.2500000e-01, 3.8750000e-01, 8.6000000e-04
4653, 2.3750000e-01, 3.8750000e-01, 8.6000000e-04
4654, 2.5000000e-01, 3.8750000e-01, 8.6000000e-04
4655, 2.6250000e-01, 3.8750000e-01, 8.6000000e-04
4656, 2.7500000e-01, 3.8750000e-01, 8.6000000e-04
4657, 2.8750000e-01, 3.8750000e-01, 8.6000000e-04
4658, 3.0000000e-01, 3.8750000e-01, 8.6000000e-04
4659, 3.1250000e-01, 3.8750000e-01, 8.6000000e-04
4660, 3.2500000e-01, 3.8750000e-01, 8.6000000e-04
4661, 3.3750000e-01, 3.8750000e-01, 8.6000000e-04
4662, 3.5000000e-01, 3.8750000e-01, 8.6000000e-04
4663, 3.6250000e-01, 3.8750000e-01, 8.6000000e-04
4664, 3.7500000e-01, 3.8750000e-01, 8.6000000e-04
4665, 3.8750000e-01, 3.8750000e-01, 8.6000000e-04
4666, 4.0000000e-01, 3.8750000e-01, 8.6000000e-04
4667, 4.1250000e-01, 3.8750000e-01, 8.6000000e-04
4668, 4.2500000e-01, 3.8750000e-01, 8.6000000e-04
4669, 4.3750000e-01, 3.8750000e-01, 8.6000000e-04
4670, 4.5000000e-01, 3.8750000e-01, 8.6000000e-04
4671, 4.6250000e-01, 3.8750000e-01, 8.6000000e-04
4672, 4.7500000e-01, 3.8750000e-01, 8.6000000e-04
4673, 4.8750000e-01, 3.8750000e-01, 8.6000000e-04
4674, 5.0000000e-01, 3.8750000e-01, 8.6000000e-04
4675, 0.0000000e+00, 4.0000000e-01, 8.6000000e-04
4676, 1.2500000e-02, 4.0000000e-01, 8.6000000e-04
4677, 2.5000000e-02, 4.0000000e-01, 8.6000000e-04
4678, 3.7500000e-02, 4.0000000e-01, 8.6000000e-04
4679, 5.0000000e-02, 4.0000000e-01, 8.6000000e-04
4680, 6.2500000e-02, 4.0000000e-01, 8.6000000e-04
4681, 7.5000000e-02, 4.0000000e-01, 8.6000000e-04
4682, 8.7500000e-02, 4.0000000e-01, 8.6000000e-04
4683, 1.0000000e-01, 4.0000000e-01, 8.6000000e-04
4684, 1.1250000e-01, 4.0000000e-01, 8.6000000e-04
4685, 1.2500000e-01, 4.0000000e-01, 8.6000000e-04
4686, 1.3750000e-01, 4.0000000e-01, 8.6000000e-04
4687, 1.5000000e-01, 4.0000000e-01, 8.6000000e-04
4688, 1.6250000e-01, 4.0000000e-01, 8.6000000e-04
4689, 1.7500000e-01, 4.0000000e-01, 8.6000000e-04
4690, 1.8750000e-01, 4.0000000e-01, 8.6000000e-04
4691, 2.0000000e-01, 4.0000000e-01, 8.6000000e-04
4692, 2.1250000e-01, 4.0000000e-01, 8.6000000e-04
4693, 2.2500000e-01, 4.0000000e-01, 8.6000000e-04
4694, 2.3750000e-01, 4.0000000e-01, 8.6000000e-04
4695, 2.5000000e-01, 4.0000000e-01, 8.6000000e-04
4696, 2.6250000e-01, 4.0000000e-01, 8.6000000e-04
4697, 2.7500000e-01, 4.0000000e-01, 8.6000000e-04
4698, 2.8750000e-01, 4.0000000e-01, 8.6000000e-04
4699, 3.0000000e-01, 4.0000000e-01, 8.6000000e-04
4700, 3.1250000e-01, 4.0000000e-01, 8.6000000e-04
4701, 3.2500000e-01, 4.0000000e-01, 8.6000000e-04
4702, 3.3750000e-01, 4.0000000e-01, 8.6000000e-04
4703, 3.5000000e-01, 4.0000000e-01, 8.6000000e-04
4704, 3.6250000e-01, 4.0000000e-01, 8.6000000e-04
4705, 3.7500000e-01, 4.0000000e-01, 8.6000000e-04
4706, 3.8750000e-01, 4.0000000e-01, 8.6000000e-04
4707, 4.0000000e-01, 4.0000000e-01, 8.6000000e-04
4708, 4.1250000e-01, 4.0000000e-01, 8.6000000e-04
4709, 4.2500000e-01, 4.0000000e-01, 8.6000000e-04
4710, 4.3750000e-01, 4.0000000e-01, 8.6000000e-04
4711, 4.5000000e-01, 4.0000000e-01, 8.6000000e-04
4712, 4.6250000e-01, 4.0000000e-01, 8.6000000e-04
4713, 4.7500000e-01, 4.0000000e-01, 8.6000000e-04
4714, 4.8750000e-01, 4.0000000e-01, 8.6000000e-04
4715, 5.0000000e-01, 4.0000000e-01, 8.6000000e-04
4716, 0.0000000e+00, 4.1250000e-01, 8.6000000e-04
4717, 1.2500000e-02, 4.1250000e-01, 8.6000000e-04
4718, 2.5000000e-02, 4.1250000e-01, 8.6000000e-04
4719, 3.7500000e-02, 4.1250000e-01, 8.6000000e-04
4720, 5.0000000e-02, 4.1250000e-01, 8.6000000e-04
4721, 6.2500000e-02, 4.1250000e-01, 8.6000000e-04
4722, 7.5000000e-02, 4.1250000e-01, 8.6000000e-04
4723, 8.7500000e-02, 4.1250000e-01, 8.6000000e-04
4724, 1.0000000e-01, 4.1250000e-01, 8.6000000e-04
4725, 1.1250000e-01, 4.1250000e-01, 8.6000000e-04
4726, 1.2500000e-01, 4.1250000e-01, 8.6000000e-04
4727, 1.3750000e-01, 4.1250000e-01, 8.6000000e-04
4728, 1.5000000e-01, 4.1250000e-01, 8.6000000e-04
4729, 1.6250000e-01, 4.1250000e-01, 8.6000000e-04
4730, 1.7500000e-01, 4.1250000e-01, 8.6000000e-04
4731, 1.8750000e-01, 4.1250000e-01, 8.6000000e-04
4732, 2.0000000e-01, 4.1250000e-01, 8.6000000e-04
4733, 2.1250000e-01, 4.1250000e-01, 8.6000000e-04
4734, 2.2500000e-01, 4.1250000e-01, 8.6000000e-04
4735, 2.3750000e-01, 4.1250000e-01, 8.6000000e-04
4736, 2.5000000e-01, 4.1250000e-01, 8.6000000e-04
4737, 2.6250000e-01, 4.1250000e-01, 8.6000000e-04
4738, 2.7500000e-01, 4.1250000e-01, 8.6000000e-04
4739, 2.8750000e-01, 4.1250000e-01, 8.6000000e-04
4740, 3.0000000e-01, 4.1250000e-01, 8.6000000e-04
4741, 3.1250000e-01, 4.1250000e-01, 8.6000000e-04
4742, 3.2500000e-01, 4.1250000e-01, 8.6000000e-04
4743, 3.3750000e-01, 4.1250000e-01, 8.6000000e-04
4744, 3.5000000e-01, 4.1250000e-01, 8.6000000e-04
4745, 3.6250000e-01, 4.1250000e-01, 8.6000000e-04
4746, 3.7500000e-01, 4.1250000e-01, 8.6000000e-04
4747, 3.8750000e-01, 4.1250000e-01, 8.6000000e-04
4748, 4.0000000e-01, 4.1250000e-01, 8.6000000e-04
4749, 4.1250000e-01, 4.1250000e-01, 8.6000000e-04
4750, 4.2500000e-01, 4.1250000e-01, 8.6000000e-04
4751, 4.3750000e-01, 4.1250000e-01, 8.6000000e-04
4752, 4.5000000e-01, 4.1250000e-01, 8.6000000e-04
4753, 4.6250000e-01, 4.1250000e-01, 8.6000000e-04
4754, 4.7500000e-01, 4.1250000e-01, 8.6000000e-04
4755, 4.8750000e-01, 4.1250000e-01, 8.6000000e-04
4756, 5.0000000e-01, 4.1250000e-01, 8.6000000e-04
4757, 0.0000000e+00, 4.2500000e-01, 8.6000000e-04
4758, 1.2500000e-02, 4.2500000e-01, 8.6000000e-04
4759, 2.5000000e-02, 4.2500000e-01, 8.6000000e-04
4760, 3.7500000e-02, 4.2500000e-01, 8.6000000e-04
4761, 5.0000000e-02, 4.2500000e-01, 8.6000000e-04
4762, 6.2500000e-02, 4.2500000e-01, 8.6000000e-04
4763, 7.5000000e-02, 4.2500000e-01, 8.6000000e-04
4764, 8.7500000e-02, 4.2500000e-01, 8.6000000e-04
4765, 1.0000000e-01, 4.2500000e-01, 8.6000000e-04
4766, 1.1250000e-01, 4.2500000e-01, 8.6000000e-04
4767, 1.2500000e-01, 4.2500000e-01, 8.6000000e-04
4768, 1.3750000e-01, 4.2500000e-01, 8.6000000e-04
4769, 1.5000000e-01, 4.2500000e-01, 8.6000000e-04
4770, 1.6250000e-01, 4.2500000e-01, 8.6000000e-04
4771, 1.7500000e-01, 4.2500000e-01, 8.6000000e-04
4772, 1.8750000e-01, 4.2500000e-01, 8.6000000e-04
4773, 2.0000000e-01, 4.2500000e-01, 8.6000000e-04
4774, 2.1250000e-01, 4.2500000e-01, 8.6000000e-04
4775, 2.2500000e-01, 4.2500000e-01, 8.6000000e-04
4776, 2.3750000e-01, 4.2500000e-01, 8.6000000e-04
4777, 2.5000000e-01, 4.2500000e-01, 8.6000000e-04
4778, 2.6250000e-01, 4.2500000e-01, 8.6000000e-04
4779, 2.7500000e-01, 4.2500000e-01, 8.6000000e-04
4780, 2.8750000e-01, 4.2500000e-01, 8.6000000e-04
4781, 3.0000000e-01, 4.2500000e-01, 8.6000000e-04
4782, 3.1250000e-01, 4.2500000e-01, 8.6000000e-04
4783, 3.2500000e-01, 4.2500000e-01, 8.6000000e-04
4784, 3.3750000e-01, 4.2500000e-01, 8.6000000e-04
4785, 3.5000000e-01, 4.2500000e-01, 8.6000000e-04
4786, 3.6250000e-01, 4.2500000e-01, 8.6000000e-04
4787, 3.7500000e-01, 4.2500000e-01, 8.6000000e-04
4788, 3.8750000e-01, 4.2500000e-01, 8.6000000e-04
4789, 4.0000000e-01, 4.2500000e-01, 8.6000000e-04
4790, 4.1250000e-01, 4.2500000e-01, 8.6000000e-04
4791, 4.2500000e-01, 4.2500000e-01, 8.6000000e-04
4792, 4.3750000e-01, 4.2500000e-01, 8.6000000e-04
4793, 4.5000000e-01, 4.2500000e-01, 8.6000000e-04
4794, 4.6250000e-01, 4.2500000e-01, 8.6000000e-04
4795, 4.7500000e-01, 4.2500000e-01, 8.6000000e-04
4796, 4.8750000e-01, 4.2500000e-01, 8.6000000e-04
4797, 5.0000000e-01, 4.2500000e-01, 8.6000000e-04
4798, 0.0000000e+00, 4.3750000e-01, 8.6000000e-04
4799, 1.2500000e-02, 4.3750000e-01, 8.6000000e-04
4800, 2.5000000e-02, 4.3750000e-01, 8.6000000e-04
4801, 3.7500000e-02, 4.3750000e-01, 8.6000000e-04
4802, 5.0000000e-02, 4.3750000e-01, 8.6000000e-04
4803, 6.2500000e-02, 4.3750000e-01, 8.6000000e-04
4804, 7.5000000e-02, 4.3750000e-01, 8.6000000e-04
4805, 8.7500000e-02, 4.3750000e-01, 8.6000000e-04
4806, 1.0000000e-01, 4.3750000e-01, 8.6000000e-04
4807, 1.1250000e-01, 4.3750000e-01, 8.6000000e-04
4808, 1.2500000e-01, 4.3750000e-01, 8.6000000e-04
4809, 1.3750000e-01, 4.3750000e-01, 8.6000000e-04
4810, 1.5000000e-01, 4.3750000e-01, 8.6000000e-04
4811, 1.6250000e-01, 4.3750000e-01, 8.6000000e-04
4812, 1.7500000e-01, 4.3750000e-01, 8.6000000e-04
4813, 1.8750000e-01, 4.3750000e-01, 8.6000000e-04
4814, 2.0000000e-01, 4.3750000e-01, 8.6000000e-04
4815, 2.1250000e-01, 4.3750000e-01, 8.6000000e-04
4816, 2.2500000e-01, 4.3750000e-01, 8.6000000e-04
4817, 2.3750000e-01, 4.3750000e-01, 8.6000000e-04
4818, 2.5000000e-01, 4.3750000e-01, 8.6000000e-04
4819, 2.6250000e-01, 4.3750000e-01, 8.6000000e-04
4820, 2.7500000e-01, 4.3750000e-01, 8.6000000e-04
4821, 2.8750000e-01, 4.3750000e-01, 8.6000000e-04
4822, 3.0000000e-01, 4.3750000e-01, 8.6000000e-04
4823, 3.1250000e-01, 4.3750000e-01, 8.6000000e-04
4824, 3.2500000e-01, 4.3750000e-01, 8.6000000e-04
4825, 3.3750000e-01, 4.3750000e-01, 8.6000000e-04
4826, 3.5000000e-01, 4.3750000e-01, 8.6000000e-04
4827, 3.6250000e-01, 4.3750000e-01, 8.6000000e-04
4828, 3.7500000e-01, 4.3750000e-01, 8.6000000e-04
4829, 3.8750000e-01, 4.3750000e-01, 8.6000000e-04
4830, 4.0000000e-01, 4.3750000e-01, 8.6000000e-04
4831, 4.1250000e-01, 4.3750000e-01, 8.6000000e-04
4832, 4.2500000e-01, 4.3750000e-01, 8.6000000e-04
4833, 4.3750000e-01, 4.3750000e-01, 8.6000000e-04
4834, 4.5000000e-01, 4.3750000e-01, 8.6000000e-04
4835, 4.6250000e-01, 4.3750000e-01, 8.6000000e-04
4836, 4.7500000e-01, 4.3750000e-01, 8.6000000e-04
4837, 4.8750000e-01, 4.3750000e-01, 8.6000000e-04
4838, 5.0000000e-01, 4.3750000e-01, 8.6000000e-04
4839, 0.0000000e+00, 4.5000000e-01, 8.6000000e-04
4840, 1.2500000e-02, 4.5000000e-01, 8.6000000e-04
4841, 2.5000000e-02, 4.5000000e-01, 8.6000000e-04
4842, 3.7500000e-02, 4.5000000e-01, 8.6000000e-04
4843, 5.0000000e-02, 4.5000000e-01, 8.6000000e-04
4844, 6.2500000e-02, 4.5000000e-01, 8.6000000e-04
4845, 7.5000000e-02, 4.5000000e-01, 8.6000000e-04
4846, 8.7500000e-02, 4.5000000e-01, 8.6000000e-04
4847, 1.0000000e-01, 4.5000000e-01, 8.6000000e-04
4848, 1.1250000e-01, 4.5000000e-01, 8.6000000e-04
4849, 1.2500000e-01, 4.5000000e-01, 8.6000000e-04
4850, 1.3750000e-01, 4.5000000e-01, 8.6000000e-04
4851, 1.5000000e-01, 4.5000000e-01, 8.6000000e-04
4852, 1.6250000e-01, 4.5000000e-01, 8.6000000e-04
4853, 1.7500000e-01, 4.5000000e-01, 8.6000000e-04
4854, 1.8750000e-01, 4.5000000e-01, 8.6000000e-04
4855, 2.0000000e-01, 4.5000000e-01, 8.6000000e-04
4856, 2.1250000e-01, 4.5000000e-01, 8.6000000e-04
4857, 2.2500000e-01, 4.5000000e-01, 8.6000000e-04
4858, 2.3750000e-01, 4.5000000e-01, 8.6000000e-04
4859, 2.5000000e-01, 4.5000000e-01, 8.6000000e-04
4860, 2.6250000e-01, 4.5000000e-01, 8.6000000e-04
4861, 2.7500000e-01, 4.5000000e-01, 8.6000000e-04
4862, 2.8750000e-01, 4.5000000e-01, 8.6000000e-04
4863, 3.0000000e-01, 4.5000000e-01, 8.6000000e-04
4864, 3.1250000e-01, 4.5000000e-01, 8.6000000e-04
4865, 3.2500000e-01, 4.5000000e-01, 8.6000000e-04
4866, 3.3750000e-01, 4.5000000e-01, 8.6000000e-04
4867, 3.5000000e-01, 4.5000000e-01, 8.6000000e-04
4868, 3.6250000e-01, 4.5000000e-01, 8.6000000e-04
4869, 3.7500000e-01, 4.5000000e-01, 8.6000000e-04
4870, 3.8750000e-01, 4.5000000e-01, 8.6000000e-04
4871, 4.0000000e-01, 4.5000000e-01, 8.6000000e-04
4872, 4.1250000e-01, 4.5000000e-01, 8.6000000e-04
4873, 4.2500000e-01, 4.5000000e-01, 8.6000000e-04
4874, 4.3750000e-01, 4.5000000e-01, 8.6000000e-04
4875, 4.5000000e-01, 4.5000000e-01, 8.6000000e-04
4876, 4.6250000e-01, 4.5000000e-01, 8.6000000e-04
4877, 4.7500000e-01, 4.5000000e-01, 8.6000000e-04
4878, 4.8750000e-01, 4.5000000e-01, 8.6000000e-04
4879, 5.0000000e-01, 4.5000000e-01, 8.6000000e-04
4880, 0.0000000e+00, 4.6250000e-01, 8.6000000e-04
4881, 1.2500000e-02, 4.6250000e-01, 8.6000000e-04
4882, 2.5000000e-02, 4.6250000e-01, 8.6000000e-04
4883, 3.7500000e-02, 4.6250000e-01, 8.6000000e-04
4884, 5.0000000e-02, 4.6250000e-01, 8.6000000e-04
4885, 6.2500000e-02, 4.6250000e-01, 8.6000000e-04
4886, 7.5000000e-02, 4.6250000e-01, 8.6000000e-04
4887, 8.7500000e-02, 4.6250000e-01, 8.6000000e-04
4888, 1.0000000e-01, 4.6250000e-01, 8.6000000e-04
4889, 1.1250000e-01, 4.6250000e-01, 8.6000000e-04
4890, 1.2500000e-01, 4.6250000e-01, 8.6000000e-04
4891, 1.3750000e-01, 4.6250000e-01, 8.6000000e-04
4892, 1.5000000e-01, 4.6250000e-01, 8.6000000e-04
4893, 1.6250000e-01, 4.6250000e-01, 8.6000000e-04
4894, 1.7500000e-01, 4.6250000e-01, 8.6000000e-04
4895, 1.8750000e-01, 4.6250000e-01, 8.6000000e-04
4896, 2.0000000e-01, 4.6250000e-01, 8.6000000e-04
4897, 2.1250000e-01, 4.6250000e-01, 8.6000000e-04
4898, 2.2500000e-01, 4.6250000e-01, 8.6000000e-04
4899, 2.3750000e-01, 4.6250000e-01, 8.6000000e-04
4900, 2.5000000e-01, 4.6250000e-01, 8.6000000e-04
4901, 2.6250000e-01, 4.6250000e-01, 8.6000000e-04
4902, 2.7500000e-01, 4.6250000e-01, 8.6000000e-04
4903, 2.8750000e-01, 4.6250000e-01, 8.6000000e-04
4904, 3.0000000e-01, 4.6250000e-01, 8.6000000e-04
4905, 3.1250000e-01, 4.6250000e-01, 8.6000000e-04
4906, 3.2500000e-01, 4.6250000e-01, 8.6000000e-04
4907, 3.3750000e-01, 4.6250000e-01, 8.6000000e-04
4908, 3.5000000e-01, 4.6250000e-01, 8.6000000e-04
4909, 3.6250000e-01, 4.6250000e-01, 8.6000000e-04
4910, 3.7500000e-01, 4.6250000e-01, 8.6000000e-04
4911, 3.8750000e-01, 4.6250000e-01, 8.6000000e-04
4912, 4.0000000e-01, 4.6250000e-01, 8.6000000e-04
4913, 4.1250000e-01, 4.6250000e-01, 8.6000000e-04
4914, 4.2500000e-01, 4.6250000e-01, 8.6000000e-04
4915, 4.3750000e-01, 4.6250000e-01, 8.6000000e-04
4916, 4.5000000e-01, 4.6250000e-01, 8.6000000e-04
4917, 4.6250000e-01, 4.6250000e-01, 8.6000000e-04
4918, 4.7500000e-01, 4.6250000e-01, 8.6000000e-04
4919, 4.8750000e-01, 4.6250000e-01, 8.6000000e-04
4920, 5.0000000e-01, 4.6250000e-01, 8.6000000e-04
4921, 0.0000000e+00, 4.7500000e-01, 8.6000000e-04
4922, 1.2500000e-02, 4.7500000e-01, 8.6000000e-04
4923, 2.5000000e-02, 4.7500000e-01, 8.6000000e-04
4924, 3.7500000e-02, 4.7500000e-01, 8.6000000e-04
4925, 5.0000000e-02, 4.7500000e-01, 8.6000000e-04
4926, 6.2500000e-02, 4.7500000e-01, 8.6000000e-04
4927, 7.5000000e-02, 4.7500000e-01, 8.6000000e-04
4928, 8.7500000e-02, 4.7500000e-01, 8.6000000e-04
4929, 1.0000000e-01, 4.7500000e-01, 8.6000000e-04
4930, 1.1250000e-01, 4.7500000e-01, 8.6000000e-04
4931, 1.2500000e-01, 4.7500000e-01, 8.6000000e-04
4932, 1.3750000e-01, 4.7500000e-01, 8.6000000e-04
4933, 1.5000000e-01, 4.7500000e-01, 8.6000000e-04
4934, 1.6250000e-01, 4.7500000e-01, 8.6000000e-04
4935, 1.7500000e-01, 4.7500000e-01, 8.6000000e-04
4936, 1.8750000e-01, 4.7500000e-01, 8.6000000e-04
4937, 2.0000000e-01, 4.7500000e-01, 8.6000000e-04
4938, 2.1250000e-01, 4.7500000e-01, 8.6000000e-04
4939, 2.2500000e-01, 4.7500000e-01, 8.6000000e-04
4940, 2.3750000e-01, 4.7500000e-01, 8.6000000e-04
4941, 2.5000000e-01, 4.7500000e-01, 8.6000000e-04
4942, 2.6250000e-01, 4.7500000e-01, 8.6000000e-04
4943, 2.7500000e-01, 4.7500000e-01, 8.6000000e-04
4944, 2.8750000e-01, 4.7500000e-01, 8.6000000e-04
4945, 3.0000000e-01, 4.7500000e-01, 8.6000000e-04
4946, 3.1250000e-01, 4.7500000e-01, 8.6000000e-04
4947, 3.2500000e-01, 4.7500000e-01, 8.6000000e-04
4948, 3.3750000e-01, 4.7500000e-01, 8.6000000e-04
4949, 3.5000000e-01, 4.7500000e-01, 8.6000000e-04
4950, 3.6250000e-01, 4.7500000e-01, 8.6000000e-04
4951, 3.7500000e-01, 4.7500000e-01, 8.6000000e-04
4952, 3.8750000e-01, 4.7500000e-01, 8.6000000e-04
4953, 4.0000000e-01, 4.7500000e-01, 8.6000000e-04
4954, 4.1250000e-01, 4.7500000e-01, 8.6000000e-04
4955, 4.2500000e-01, 4.7500000e-01, 8.6000000e-04
4956, 4.3750000e-01, 4.7500000e-01, 8.6000000e-04
4957, 4.5000000e-01, 4.7500000e-01, 8.6000000e-04
4958, 4.6250000e-01, 4.7500000e-01, 8.6000000e-04
4959, 4.7500000e-01, 4.7500000e-01, 8.6000000e-04
4960, 4.8750000e-01, 4.7500000e-01, 8.6000000e-04
4961, 5.0000000e-01, 4.7500000e-01, 8.6000000e-04
4962, 0.0000000e+00, 4.8750000e-01, 8.6000000e-04
4963, 1.2500000e-02, 4.8750000e-01, 8.6000000e-04
4964, 2.5000000e-02, 4.8750000e-01, 8.6000000e-04
4965, 3.7500000e-02, 4.8750000e-01, 8.6000000e-04
4966, 5.0000000e-02, 4.8750000e-01, 8.6000000e-04
4967, 6.2500000e-02, 4.8750000e-01, 8.6000000e-04
4968, 7.5000000e-02, 4.8750000e-01, 8.6000000e-04
4969, 8.7500000e-02, 4.8750000e-01, 8.6000000e-04
4970, 1.0000000e-01, 4.8750000e-01, 8.6000000e-04
4971, 1.1250000e-01, 4.8750000e-01, 8.6000000e-04
4972, 1.2500000e-01, 4.8750000e-01, 8.6000000e-04
4973, 1.3750000e-01, 4.8750000e-01, 8.6000000e-04
4974, 1.5000000e-01, 4.8750000e-01, 8.6000000e-04
4975, 1.6250000e-01, 4.8750000e-01, 8.6000000e-04
4976, 1.7500000e-01, 4.8750000e-01, 8.6000000e-04
4977, 1.8750000e-01, 4.8750000e-01, 8.6000000e-04
4978, 2.0000000e-01, 4.8750000e-01, 8.6000000e-04
4979, 2.1250000e-01, 4.8750000e-01, 8.6000000e-04
4980, 2.2500000e-01, 4.8750000e-01, 8.6000000e-04
4981, 2.3750000e-01, 4.8750000e-01, 8.6000000e-04
4982, 2.5000000e-01, 4.8750000e-01, 8.6000000e-04
4983, 2.6250000e-01, 4.8750000e-01, 8.6000000e-04
4984, 2.7500000e-01, 4.8750000e-01, 8.6000000e-04
4985, 2.8750000e-01, 4.8750000e-01, 8.6000000e-04
4986, 3.0000000e-01, 4.8750000e-01, 8.6000000e-04
4987, 3.1250000e-01, 4.8750000e-01, 8.6000000e-04
4988, 3.2500000e-01, 4.8750000e-01, 8.6000000e-04
4989, 3.3750000e-01, 4.8750000e-01, 8.6000000e-04
4990, 3.5000000e-01, 4.8750000e-01, 8.6000000e-04
4991, 3.6250000e-01, 4.8750000e-01, 8.6000000e-04
4992, 3.7500000e-01, 4.8750000e-01, 8.6000000e-04
4993, 3.8750000e-01, 4.8750000e-01, 8.6000000e-04
4994, 4.0000000e-01, 4.8750000e-01, 8.6000000e-04
4995, 4.1250000e-01, 4.8750000e-01, 8.6000000e-04
4996, 4.2500000e-01, 4.8750000e-01, 8.6000000e-04
4997, 4.3750000e-01, 4.8750000e-01, 8.6000000e-04
4998, 4.5000000e-01, 4.8750000e-01, 8.6000000e-04
4999, 4.6250000e-01, 4.8750000e-01, 8.6000000e-04
5000, 4.7500000e-01, 4.8750000e-01, 8.6000000e-04
5001, 4.8750000e-01, 4.8750000e-01, 8.6000000e-04
5002, 5.0000000e-01, 4.8750000e-01, 8.6000000e-04
5003, 0.0000000e+00, 5.0000000e-01, 8.6000000e-04
5004, 1.2500000e-02, 5.0000000e-01, 8.6000000e-04
5005, 2.5000000e-02, 5.0000000e-01, 8.6000000e-04
5006, 3.7500000e-02, 5.0000000e-01, 8.6000000e-04
5007, 5.0000000e-02, 5.0000000e-01, 8.6000000e-04
5008, 6.2500000e-02, 5.0000000e-01, 8.6000000e-04
5009, 7.5000000e-02, 5.0000000e-01, 8.6000000e-04
5010, 8.7500000e-02, 5.0000000e-01, 8.6000000e-04
5011, 1.0000000e-01, 5.0000000e-01, 8.6000000e-04
5012, 1.1250000e-01, 5.0000000e-01, 8.6000000e-04
5013, 1.2500000e-01, 5.0000000e-01, 8.6000000e-04
5014, 1.3750000e-01, 5.0000000e-01, 8.6000000e-04
5015, 1.5000000e-01, 5.0000000e-01, 8.6000000e-04
5016, 1.6250000e-01, 5.0000000e-01, 8.6000000e-04
5017, 1.7500000e-01, 5.0000000e-01, 8.6000000e-04
5018, 1.8750000e-01, 5.0000000e-01, 8.6000000e-04
5019, 2.0000000e-01, 5.0000000e-01, 8.6000000e-04
5020, 2.1250000e-01, 5.0000000e-01, 8.6000000e-04
5021, 2.2500000e-01, 5.0000000e-01, 8.6000000e-04
5022, 2.3750000e-01, 5.0000000e-01, 8.6000000e-04
5023, 2.5000000e-01, 5.0000000e-01, 8.6000000e-04
5024, 2.6250000e-01, 5.0000000e-01, 8.6000000e-04
5025, 2.7500000e-01, 5.0000000e-01, 8.6000000e-04
5026, 2.8750000e-01, 5.0000000e-01, 8.6000000e-04
5027, 3.0000000e-01, 5.0000000e-01, 8.6000000e-04
5028, 3.1250000e-01, 5.0000000e-01, 8.6000000e-04
5029, 3.2500000e-01, 5.0000000e-01, 8.6000000e-04
5030, 3.3750000e-01, 5.0000000e-01, 8.6000000e-04
5031, 3.5000000e-01, 5.0000000e-01, 8.6000000e-04
5032, 3.6250000e-01, 5.0000000e-01, 8.6000000e-04
5033, 3.7500000e-01, 5.0000000e-01, 8.6000000e-04
5034, 3.8750000e-01, 5.0000000e-01, 8.6000000e-04
5035, 4.0000000e-01, 5.0000000e-01, 8.6000000e-04
5036, 4.1250000e-01, 5.0000000e-01, 8.6000000e-04
5037, 4.2500000e-01, 5.0000000e-01, 8.6000000e-04
5038, 4.3750000e-01, 5.0000000e-01, 8.6000000e-04
5039, 4.5000000e-01, 5.0000000e-01, 8.6000000e-04
5040, 4.6250000e-01, 5.0000000e-01, 8.6000000e-04
5041, 4.7500000e-01, 5.0000000e-01, 8.6000000e-04
5042, 4.8750000e-01, 5.0000000e-01, 8.6000000e-04
5043, 5.0000000e-01, 5.0000000e-01, 8.6000000e-04
5044, 0.0000000e+00, 0.0000000e+00, 1.2900000e-03
5045, 1.2500000e-02, 0.0000000e+00, 1.2900000e-03
5046, 2.5000000e-02, 0.0000000e+00, 1.2900000e-03
5047, 3.7500000e-02, 0.0000000e+00, 1.2900000e-03
5048, 5.0000000e-02, 0.0000000e+00, 1.2900000e-03
5049, 6.2500000e-02, 0.0000000e+00, 1.2900000e-03
5050, 7.5000000e-02, 0.0000000e+00, 1.2900000e-03
5051, 8.7500000e-02, 0.0000000e+00, 1.2900000e-03
5052, 1.0000000e-01, 0.0000000e+00, 1.2900000e-03
5053, 1.1250000e-01, 0.0000000e+00, 1.2900000e-03
5054, 1.2500000e-01, 0.0000000e+00, 1.2900000e-03
5055, 1.3750000e-01, 0.0000000e+00, 1.2900000e-03
5056, 1.5000000e-01, 0.0000000e+00, 1.2900000e-03
5057, 1.6250000e-01, 0.0000000e+00, 1.2900000e-03
5058, 1.7500000e-01, 0.0000000e+00, 1.2900000e-03
5059, 1.8750000e-01, 0.0000000e+00, 1.2900000e-03
5060, 2.0000000e-01, 0.0000000e+00, 1.2900000e-03
5061, 2.1250000e-01, 0.0000000e+00, 1.2900000e-03
5062, 2.2500000e-01, 0.0000000e+00, 1.2900000e-03
5063, 2.3750000e-01, 0.0000000e+00, 1.2900000e-03
5064, 2.5000000e-01, 0.0000000e+00, 1.2900000e-03
5065, 2.6250000e-01, 0.0000000e+00, 1.2900000e-03
5066, 2.7500000e-01, 0.0000000e+00, 1.2900000e-03
5067, 2.8750000e-01, 0.0000000e+00, 1.2900000e-03
5068, 3.0000000e-01, 0.0000000e+00, 1.2900000e-03
5069, 3.1250000e-01, 0.0000000e+00, 1.2900000e-03
5070, 3.2500000e-01, 0.0000000e+00, 1.2900000e-03
5071, 3.3750000e-01, 0.0000000e+00, 1.2900000e-03
5072, 3.5000000e-01, 0.0000000e+00, 1.2900000e-03
5073, 3.6250000e-01, 0.0000000e+00, 1.2900000e-03
5074, 3.7500000e-01, 0.0000000e+00, 1.2900000e-03
5075, 3.8750000e-01, 0.0000000e+00, 1.2900000e-03
5076, 4.0000000e-01, 0.0000000e+00, 1.2900000e-03
5077, 4.1250000e-01, 0.0000000e+00, 1.2900000e-03
5078, 4.2500000e-01, 0.0000000e+00, 1.2900000e-03
5079, 4.3750000e-01, 0.0000000e+00, 1.2900000e-03
5080, 4.5000000e-01, 0.0000000e+00, 1.2900000e-03
5081, 4.6250000e-01, 0.0000000e+00, 1.2900000e-03
5082, 4.7500000e-01, 0.0000000e+00, 1.2900000e-03
5083, 4.8750000e-01, 0.0000000e+00, 1.2900000e-03
5084, 5.0000000e-01, 0.0000000e+00, 1.2900000e-03
5085, 0.0000000e+00, 1.2500000e-02, 1.2900000e-03
5086, 1.2500000e-02, 1.2500000e-02, 1.2900000e-03
5087, 2.5000000e-02, 1.2500000e-02, 1.2900000e-03
5088, 3.7500000e-02, 1.2500000e-02, 1.2900000e-03
5089, 5.0000000e-02, 1.2500000e-02, 1.2900000e-03
5090, 6.2500000e-02, 1.2500000e-02, 1.2900000e-03
5091, 7.5000000e-02, 1.2500000e-02, 1.2900000e-03
5092, 8.7500000e-02, 1.2500000e-02, 1.2900000e-03
5093, 1.0000000e-01, 1.2500000e-02, 1.2900000e-03
5094, 1.1250000e-01, 1.2500000e-02, 1.2900000e-03
5095, 1.2500000e-01, 1.2500000e-02, 1.2900000e-03
5096, 1.3750000e-01, 1.2500000e-02, 1.2900000e-03
5097, 1.5000000e-01, 1.2500000e-02, 1.2900000e-03
5098, 1.6250000e-01, 1.2500000e-02, 1.2900000e-03
5099, 1.7500000e-01, 1.2500000e-02, 1.2900000e-03
5100, 1.8750000e-01, 1.2500000e-02, 1.2900000e-03
5101, 2.0000000e-01, 1.2500000e-02, 1.2900000e-03
5102, 2.1250000e-01, 1.2500000e-02, 1.2900000e-03
5103, 2.2500000e-01, 1.2500000e-02, 1.2900000e-03
5104, 2.3750000e-01, 1.2500000e-02, 1.2900000e-03
5105, 2.5000000e-01, 1.2500000e-02, 1.2900000e-03
5106, 2.6250000e-01, 1.2500000e-02, 1.2900000e-03
5107, 2.7500000e-01, 1.2500000e-02, 1.2900000e-03
5108, 2.8750000e-01, 1.2500000e-02, 1.2900000e-03
5109, 3.0000000e-01, 1.2500000e-02, 1.2900000e-03
5110, 3.1250000e-01, 1.2500000e-02, 1.2900000e-03
5111, 3.2500000e-01, 1.2500000e-02, 1.2900000e-03
5112, 3.3750000e-01, 1.2500000e-02, 1.2900000e-03
5113, 3.5000000e-01, 1.2500000e-02, 1.2900000e-03
5114, 3.6250000e-01, 1.2500000e-02, 1.2900000e-03
5115, 3.7500000e-01, 1.2500000e-02, 1.2900000e-03
5116, 3.8750000e-01, 1.2500000e-02, 1.2900000e-03
5117, 4.0000000e-01, 1.2500000e-02, 1.2900000e-03
5118, 4.1250000e-01, 1.2500000e-02, 1.2900000e-03
5119, 4.2500000e-01, 1.2500000e-02, 1.2900000e-03
5120, 4.3750000e-01, 1.2500000e-02, 1.2900000e-03
5121, 4.5000000e-01, 1.2500000e-02, 1.2900000e-03
5122, 4.6250000e-01, 1.2500000e-02, 1.2900000e-03
5123, 4.7500000e-01, 1.2500000e-02, 1.2900000e-03
5124, 4.8750000e-01, 1.2500000e-02, 1.2900000e-03
5125, 5.0000000e-01, 1.2500000e-02, 1.2900000e-03
5126, 0.0000000e+00, 2.5000000e-02, 1.2900000e-03
5127, 1.2500000e-02, 2.5000000e-02, 1.2900000e-03
5128, 2.5000000e-02, 2.5000000e-02, 1.2900000e-03
5129, 3.7500000e-02, 2.5000000e-02, 1.2900000e-03
5130, 5.0000000e-02, 2.5000000e-02, 1.2900000e-03
5131, 6.2500000e-02, 2.5000000e-02, 1.2900000e-03
5132, 7.5000000e-02, 2.5000000e-02, 1.2900000e-03
5133, 8.7500000e-02, 2.5000000e-02, 1.2900000e-03
5134, 1.0000000e-01, 2.5000000e-02, 1.2900000e-03
5135, 1.1250000e-01, 2.5000000e-02, 1.2900000e-03
5136, 1.2500000e-01, 2.5000000e-02, 1.2900000e-03
5137, 1.3750000e-01, 2.5000000e-02, 1.2900000e-03
5138, 1.5000000e-01, 2.5000000e-02, 1.2900000e-03
5139, 1.6250000e-01, 2.5000000e-02, 1.2900000e-03
5140, 1.7500000e-01, 2.5000000e-02, 1.2900000e-03
5141, 1.8750000e-01, 2.5000000e-02, 1.2900000e-03
5142, 2.0000000e-01, 2.5000000e-02, 1.2900000e-03
5143, 2.1250000e-01, 2.5000000e-02, 1.2900000e-03
5144, 2.2500000e-01, 2.5000000e-02, 1.2900000e-03
5145, 2.3750000e-01, 2.5000000e-02, 1.2900000e-03
5146, 2.5000000e-01, 2.5000000e-02, 1.2900000e-03
5147, 2.6250000e-01, 2.5000000e-02, 1.2900000e-03
5148, 2.7500000e-01, 2.5000000e-02, 1.2900000e-03
5149, 2.8750000e-01, 2.5000000e-02, 1.2900000e-03
5150, 3.0000000e-01, 2.5000000e-02, 1.2900000e-03
5151, 3.1250000e-01, 2.5000000e-02, 1.2900000e-03
5152, 3.2500000e-01, 2.5000000e-02, 1.2900000e-03
5153, 3.3750000e-01, 2.5000000e-02, 1.2900000e-03
5154, 3.5000000e-01, 2.5000000e-02, 1.2900000e-03
5155, 3.6250000e-01, 2.5000000e-02, 1.2900000e-03
5156, 3.7500000e-01, 2.5000000e-02, 1.2900000e-03
5157, 3.8750000e-01, 2.5000000e-02, 1.2900000e-03
5158, 4.0000000e-01, 2.5000000e-02, 1.2900000e-03
5159, 4.1250000e-01, 2.5000000e-02, 1.2900000e-03
5160, 4.2500000e-01, 2.5000000e-02, 1.2900000e-03
5161, 4.3750000e-01, 2.5000000e-02, 1.2900000e-03
5162, 4.5000000e-01, 2.5000000e-02, 1.2900000e-03
5163, 4.6250000e-01, 2.5000000e-02, 1.2900000e-03
5164, 4.7500000e-01, 2.5000000e-02, 1.2900000e-03
5165, 4.8750000e-01, 2.5000000e-02, 1.2900000e-03
5166, 5.0000000e-01, 2.5000000e-02, 1.2900000e-03
5167, 0.0000000e+00, 3.7500000e-02, 1.2900000e-03
5168, 1.2500000e-02, 3.7500000e-02, 1.2900000e-03
5169, 2.5000000e-02, 3.7500000e-02, 1.2900000e-03
5170, 3.7500000e-02, 3.7500000e-02, 1.2900000e-03
5171, 5.0000000e-02, 3.7500000e-02, 1.2900000e-03
5172, 6.2500000e-02, 3.7500000e-02, 1.2900000e-03
5173, 7.5000000e-02, 3.7500000e-02, 1.2900000e-03
5174, 8.7500000e-02, 3.7500000e-02, 1.2900000e-03
5175, 1.0000000e-01, 3.7500000e-02, 1.2900000e-03
5176, 1.1250000e-01, 3.7500000e-02, 1.2900000e-03
5177, 1.2500000e-01, 3.7500000e-02, 1.2900000e-03
5178, 1.3750000e-01, 3.7500000e-02, 1.2900000e-03
5179, 1.5000000e-01, 3.7500000e-02, 1.2900000e-03
5180, 1.6250000e-01, 3.7500000e-02, 1.2900000e-03
5181, 1.7500000e-01, 3.7500000e-02, 1.2900000e-03
5182, 1.8750000e-01, 3.7500000e-02, 1.2900000e-03
5183, 2.0000000e-01, 3.7500000e-02, 1.2900000e-03
5184, 2.1250000e-01, 3.7500000e-02, 1.2900000e-03
5185, 2.2500000e-01, 3.7500000e-02, 1.2900000e-03
5186, 2.3750000e-01, 3.7500000e-02, 1.2900000e-03
5187, 2.5000000e-01, 3.7500000e-02, 1.2900000e-03
5188, 2.6250000e-01, 3.7500000e-02, 1.2900000e-03
5189, 2.7500000e-01, 3.7500000e-02, 1.2900000e-03
5190, 2.8750000e-01, 3.7500000e-02, 1.2900000e-03
5191, 3.0000000e-01, 3.7500000e-02, 1.2900000e-03
5192, 3.1250000e-01, 3.7500000e-02, 1.2900000e-03
5193, 3.2500000e-01, 3.7500000e-02, 1.2900000e-03
5194, 3.3750000e-01, 3.7500000e-02, 1.2900000e-03
5195, 3.5000000e-01, 3.7500000e-02, 1.2900000e-03
5196, 3.6250000e-01, 3.7500000e-02, 1.2900000e-03
5197, 3.7500000e-01, 3.7500000e-02, 1.2900000e-03
5198, 3.8750000e-01, 3.7500000e-02, 1.2900000e-03
5199, 4.0000000e-01, 3.7500000e-02, 1.2900000e-03
5200, 4.1250000e-01, 3.7500000e-02, 1.2900000e-03
5201, 4.2500000e-01, 3.7500000e-02, 1.2900000e-03
5202, 4.3750000e-01, 3.7500000e-02, 1.2900000e-03
5203, 4.5000000e-01, 3.7500000e-02, 1.2900000e-03
5204, 4.6250000e-01, 3.7500000e-02, 1.2900000e-03
5205, 4.7500000e-01, 3.7500000e-02, 1.2900000e-03
5206, 4.8750000e-01, 3.7500000e-02, 1.2900000e-03
5207, 5.0000000e-01, 3.7500000e-02, 1.2900000e-03
5208, 0.0000000e+00, 5.0000000e-02, 1.2900000e-03
5209, 1.2500000e-02, 5.0000000e-02, 1.2900000e-03
5210, 2.5000000e-02, 5.0000000e-02, 1.2900000e-03
5211, 3.7500000e-02, 5.0000000e-02, 1.2900000e-03
5212, 5.0000000e-02, 5.0000000e-02, 1.2900000e-03
5213, 6.2500000e-02, 5.0000000e-02, 1.2900000e-03
5214, 7.5000000e-02, 5.0000000e-02, 1.2900000e-03
5215, 8.7500000e-02, 5.0000000e-02, 1.2900000e-03
5216, 1.0000000e-01, 5.0000000e-02, 1.2900000e-03
5217, 1.1250000e-01, 5.0000000e-02, 1.2900000e-03
5218, 1.2500000e-01, 5.0000000e-02, 1.2900000e-03
5219, 1.3750000e-01, 5.0000000e-02, 1.2900000e-03
5220, 1.5000000e-01, 5.0000000e-02, 1.2900000e-03
5221, 1.6250000e-01, 5.0000000e-02, 1.2900000e-03
5222, 1.7500000e-01, 5.0000000e-02, 1.2900000e-03
5223, 1.8750000e-01, 5.0000000e-02, 1.2900000e-03
5224, 2.0000000e-01, 5.0000000e-02, 1.2900000e-03
5225, 2.1250000e-01, 5.0000000e-02, 1.2900000e-03
5226, 2.2500000e-01, 5.0000000e-02, 1.2900000e-03
5227, 2.3750000e-01, 5.0000000e-02, 1.2900000e-03
5228, 2.5000000e-01, 5.0000000e-02, 1.2900000e-03
5229, 2.6250000e-01, 5.0000000e-02, 1.2900000e-03
5230, 2.7500000e-01, 5.0000000e-02, 1.2900000e-03
5231, 2.8750000e-01, 5.0000000e-02, 1.2900000e-03
5232, 3.0000000e-01, 5.0000000e-02, 1.2900000e-03
5233, 3.1250000e-01, 5.0000000e-02, 1.2900000e-03
5234, 3.2500000e-01, 5.0000000e-02, 1.2900000e-03
5235, 3.3750000e-01, 5.0000000e-02, 1.2900000e-03
5236, 3.5000000e-01, 5.0000000e-02, 1.2900000e-03
5237, 3.6250000e-01, 5.0000000e-02, 1.2900000e-03
5238, 3.7500000e-01, 5.0000000e-02, 1.2900000e-03
5239, 3.8750000e-01, 5.0000000e-02, 1.2900000e-03
5240, 4.0000000e-01, 5.0000000e-02, 1.2900000e-03
5241, 4.1250000e-01, 5.0000000e-02, 1.2900000e-03
5242, 4.2500000e-01, 5.0000000e-02, 1.2900000e-03
5243, 4.3750000e-01, 5.0000000e-02, 1.2900000e-03
5244, 4.5000000e-01, 5.0000000e-02, 1.2900000e-03
5245, 4.6250000e-01, 5.0000000e-02, 1.2900000e-03
5246, 4.7500000e-01, 5.0000000e-02, 1.2900000e-03
5247, 4.8750000e-01, 5.0000000e-02, 1.2900000e-03
5248, 5.0000000e-01, 5.0000000e-02, 1.2900000e-03
5249, 0.0000000e+00, 6.2500000e-02, 1.2900000e-03
5250, 1.2500000e-02, 6.2500000e-02, 1.2900000e-03
5251, 2.5000000e-02, 6.2500000e-02, 1.2900000e-03
5252, 3.7500000e-02, 6.2500000e-02, 1.2900000e-03
5253, 5.0000000e-02, 6.2500000e-02, 1.2900000e-03
5254, 6.2500000e-02, 6.2500000e-02, 1.2900000e-03
5255, 7.5000000e-02, 6.2500000e-02, 1.2900000e-03
5256, 8.7500000e-02, 6.2500000e-02, 1.2900000e-03
5257, 1.0000000e-01, 6.2500000e-02, 1.2900000e-03
5258, 1.1250000e-01, 6.2500000e-02, 1.2900000e-03
5259, 1.2500000e-01, 6.2500000e-02, 1.2900000e-03
5260, 1.3750000e-01, 6.2500000e-02, 1.2900000e-03
5261, 1.5000000e-01, 6.2500000e-02, 1.2900000e-03
5262, 1.6250000e-01, 6.2500000e-02, 1.2900000e-03
5263, 1.7500000e-01, 6.2500000e-02, 1.2900000e-03
5264, 1.8750000e-01, 6.2500000e-02, 1.2900000e-03
5265, 2.0000000e-01, 6.2500000e-02, 1.2900000e-03
5266, 2.1250000e-01, 6.2500000e-02, 1.2900000e-03
5267, 2.2500000e-01, 6.2500000e-02, 1.2900000e-03
5268, 2.3750000e-01, 6.2500000e-02, 1.2900000e-03
5269, 2.5000000e-01, 6.2500000e-02, 1.2900000e-03
5270, 2.6250000e-01, 6.2500000e-02, 1.2900000e-03
5271, 2.7500000e-01, 6.2500000e-02, 1.2900000e-03
5272, 2.8750000e-01, 6.2500000e-02, 1.2900000e-03
5273, 3.0000000e-01, 6.2500000e-02, 1.2900000e-03
5274, 3.1250000e-01, 6.2500000e-02, 1.2900000e-03
5275, 3.2500000e-01, 6.2500000e-02, 1.2900000e-03
5276, 3.3750000e-01, 6.2500000e-02, 1.2900000e-03
5277, 3.5000000e-01, 6.2500000e-02, 1.2900000e-03
5278, 3.6250000e-01, 6.2500000e-02, 1.2900000e-03
5279, 3.7500000e-01, 6.2500000e-02, 1.2900000e-03
5280, 3.8750000e-01, 6.2500000e-02, 1.2900000e-03
5281, 4.0000000e-01, 6.2500000e-02, 1.2900000e-03
5282, 4.1250000e-01, 6.2500000e-02, 1.2900000e-03
5283, 4.2500000e-01, 6.2500000e-02, 1.2900000e-03
5284, 4.3750000e-01, 6.2500000e-02, 1.2900000e-03
5285, 4.5000000e-01, 6.2500000e-02, 1.2900000e-03
5286, 4.6250000e-01, 6.2500000e-02, 1.2900000e-03
5287, 4.7500000e-01, 6.2500000e-02, 1.2900000e-03
5288, 4.8750000e-01, 6.2500000e-02, 1.2900000e-03
5289, 5.0000000e-01, 6.2500000e-02, 1.2900000e-03
5290, 0.0000000e+00, 7.5000000e-02, 1.2900000e-03
5291, 1.2500000e-02, 7.5000000e-02, 1.2900000e-03
5292, 2.5000000e-02, 7.5000000e-02, 1.2900000e-03
5293, 3.7500000e-02, 7.5000000e-02, 1.2900000e-03
5294, 5.0000000e-02, 7.5000000e-02, 1.2900000e-03
5295, 6.2500000e-02, 7.5000000e-02, 1.2900000e-03
5296, 7.5000000e-02, 7.5000000e-02, 1.2900000e-03
5297, 8.7500000e-02, 7.5000000e-02, 1.2900000e-03
5298, 1.0000000e-01, 7.5000000e-02, 1.2900000e-03
5299, 1.1250000e-01, 7.5000000e-02, 1.2900000e-03
5300, 1.2500000e-01, 7.5000000e-02, 1.2900000e-03
5301, 1.3750000e-01, 7.5000000e-02, 1.2900000e-03
5302, 1.5000000e-01, 7.5000000e-02, 1.2900000e-03
5303, 1.6250000e-01, 7.5000000e-02, 1.2900000e-03
5304, 1.7500000e-01, 7.5000000e-02, 1.2900000e-03
5305, 1.8750000e-01, 7.5000000e-02, 1.2900000e-03
5306, 2.0000000e-01, 7.5000000e-02, 1.2900000e-03
5307, 2.1250000e-01, 7.5000000e-02, 1.2900000e-03
5308, 2.2500000e-01, 7.5000000e-02, 1.2900000e-03
5309, 2.3750000e-01, 7.5000000e-02, 1.2900000e-03
5310, 2.5000000e-01, 7.5000000e-02, 1.2900000e-03
5311, 2.6250000e-01, 7.5000000e-02, 1.2900000e-03
5312, 2.7500000e-01, 7.5000000e-02, 1.2900000e-03
5313, 2.8750000e-01, 7.5000000e-02, 1.2900000e-03
5314, 3.0000000e-01, 7.5000000e-02, 1.2900000e-03
5315, 3.1250000e-01, 7.5000000e-02, 1.2900000e-03
5316, 3.2500000e-01, 7.5000000e-02, 1.2900000e-03
5317, 3.3750000e-01, 7.5000000e-02, 1.2900000e-03
5318, 3.5000000e-01, 7.5000000e-02, 1.2900000e-03
5319, 3.6250000e-01, 7.5000000e-02, 1.2900000e-03
5320, 3.7500000e-01, 7.5000000e-02, 1.2900000e-03
5321, 3.8750000e-01, 7.5000000e-02, 1.2900000e-03
5322, 4.0000000e-01, 7.5000000e-02, 1.2900000e-03
5323, 4.1250000e-01, 7.5000000e-02, 1.2900000e-03
5324, 4.2500000e-01, 7.5000000e-02, 1.2900000e-03
5325, 4.3750000e-01, 7.5000000e-02, 1.2900000e-03
5326, 4.5000000e-01, 7.5000000e-02, 1.2900000e-03
5327, 4.6250000e-01, 7.5000000e-02, 1.2900000e-03
5328, 4.7500000e-01, 7.5000000e-02, 1.2900000e-03
5329, 4.8750000e-01, 7.5000000e-02, 1.2900000e-03
5330, 5.0000000e-01, 7.5000000e-02, 1.2900000e-03
5331, 0.0000000e+00, 8.7500000e-02, 1.2900000e-03
5332, 1.2500000e-02, 8.7500000e-02, 1.2900000e-03
5333, 2.5000000e-02, 8.7500000e-02, 1.2900000e-03
5334, 3.7500000e-02, 8.7500000e-02, 1.2900000e-03
5335, 5.0000000e-02, 8.7500000e-02, 1.2900000e-03
5336, 6.2500000e-02, 8.7500000e-02, 1.2900000e-03
5337, 7.5000000e-02, 8.7500000e-02, 1.2900000e-03
5338, 8.7500000e-02, 8.7500000e-02, 1.2900000e-03
5339, 1.0000000e-01, 8.7500000e-02, 1.2900000e-03
5340, 1.1250000e-01, 8.7500000e-02, 1.2900000e-03
5341, 1.2500000e-01, 8.7500000e-02, 1.2900000e-03
5342, 1.3750000e-01, 8.7500000e-02, 1.2900000e-03
5343, 1.5000000e-01, 8.7500000e-02, 1.2900000e-03
5344, 1.6250000e-01, 8.7500000e-02, 1.2900000e-03
5345, 1.7500000e-01, 8.7500000e-02, 1.2900000e-03
5346, 1.8750000e-01, 8.7500000e-02, 1.2900000e-03
5347, 2.0000000e-01, 8.7500000e-02, 1.2900000e-03
5348, 2.1250000e-01, 8.7500000e-02, 1.2900000e-03
5349, 2.2500000e-01, 8.7500000e-02, 1.2900000e-03
5350, 2.3750000e-01, 8.7500000e-02, 1.2900000e-03
5351, 2.5000000e-01, 8.7500000e-02, 1.2900000e-03
5352, 2.6250000e-01, 8.7500000e-02, 1.2900000e-03
5353, 2.7500000e-01, 8.7500000e-02, 1.2900000e-03
5354, 2.8750000e-01, 8.7500000e-02, 1.2900000e-03
5355, 3.0000000e-01, 8.7500000e-02, 1.2900000e-03
5356, 3.1250000e-01, 8.7500000e-02, 1.2900000e-03
5357, 3.2500000e-01, 8.7500000e-02, 1.2900000e-03
5358, 3.3750000e-01, 8.7500000e-02, 1.2900000e-03
5359, 3.5000000e-01, 8.7500000e-02, 1.2900000e-03
5360, 3.6250000e-01, 8.7500000e-02, 1.2900000e-03
5361, 3.7500000e-01, 8.7500000e-02, 1.2900000e-03
5362, 3.8750000e-01, 8.7500000e-02, 1.2900000e-03
5363, 4.0000000e-01, 8.7500000e-02, 1.2900000e-03
5364, 4.1250000e-01, 8.7500000e-02, 1.2900000e-03
5365, 4.2500000e-01, 8.7500000e-02, 1.2900000e-03
5366, 4.3750000e-01, 8.7500000e-02, 1.2900000e-03
5367, 4.5000000e-01, 8.7500000e-02, 1.2900000e-03
5368, 4.6250000e-01, 8.7500000e-02, 1.2900000e-03
5369, 4.7500000e-01, 8.7500000e-02, 1.2900000e-03
5370, 4.8750000e-01, 8.7500000e-02, 1.2900000e-03
5371, 5.0000000e-01, 8.7500000e-02, 1.2900000e-03
5372, 0.0000000e+00, 1.0000000e-01, 1.2900000e-03
5373, 1.2500000e-02, 1.0000000e-01, 1.2900000e-03
5374, 2.5000000e-02, 1.0000000e-01, 1.2900000e-03
5375, 3.7500000e-02, 1.0000000e-01, 1.2900000e-03
5376, 5.0000000e-02, 1.0000000e-01, 1.2900000e-03
5377, 6.2500000e-02, 1.0000000e-01, 1.2900000e-03
5378, 7.5000000e-02, 1.0000000e-01, 1.2900000e-03
5379, 8.7500000e-02, 1.0000000e-01, 1.2900000e-03
5380, 1.0000000e-01, 1.0000000e-01, 1.2900000e-03
5381, 1.1250000e-01, 1.0000000e-01, 1.2900000e-03
5382, 1.2500000e-01, 1.0000000e-01, 1.2900000e-03
5383, 1.3750000e-01, 1.0000000e-01, 1.2900000e-03
5384, 1.5000000e-01, 1.0000000e-01, 1.2900000e-03
5385, 1.6250000e-01, 1.0000000e-01, 1.2900000e-03
5386, 1.7500000e-01, 1.0000000e-01, 1.2900000e-03
5387, 1.8750000e-01, 1.0000000e-01, 1.2900000e-03
5388, 2.0000000e-01, 1.0000000e-01, 1.2900000e-03
5389, 2.1250000e-01, 1.0000000e-01, 1.2900000e-03
5390, 2.2500000e-01, 1.0000000e-01, 1.2900000e-03
5391, 2.3750000e-01, 1.0000000e-01, 1.2900000e-03
5392, 2.5000000e-01, 1.0000000e-01, 1.2900000e-03
5393, 2.6250000e-01, 1.0000000e-01, 1.2900000e-03
5394, 2.7500000e-01, 1.0000000e-01, 1.2900000e-03
5395, 2.8750000e-01, 1.0000000e-01, 1.2900000e-03
5396, 3.0000000e-01, 1.0000000e-01, 1.2900000e-03
5397, 3.1250000e-01, 1.0000000e-01, 1.2900000e-03
5398, 3.2500000e-01, 1.0000000e-01, 1.2900000e-03
5399, 3.3750000e-01, 1.0000000e-01, 1.2900000e-03
5400, 3.5000000e-01, 1.0000000e-01, 1.2900000e-03
5401, 3.6250000e-01, 1.0000000e-01, 1.2900000e-03
5402, 3.7500000e-01, 1.0000000e-01, 1.2900000e-03
5403, 3.8750000e-01, 1.0000000e-01, 1.2900000e-03
5404, 4.0000000e-01, 1.0000000e-01, 1.2900000e-03
5405, 4.1250000e-01, 1.0000000e-01, 1.2900000e-03
5406, 4.2500000e-01, 1.0000000e-01, 1.2900000e-03
5407, 4.3750000e-01, 1.0000000e-01, 1.2900000e-03
5408, 4.5000000e-01, 1.0000000e-01, 1.2900000e-03
5409, 4.6250000e-01, 1.0000000e-01, 1.2900000e-03
5410, 4.7500000e-01, 1.0000000e-01, 1.2900000e-03
5411, 4.8750000e-01, 1.0000000e-01, 1.2900000e-03
5412, 5.0000000e-01, 1.0000000e-01, 1.2900000e-03
5413, 0.0000000e+00, 1.1250000e-01, 1.2900000e-03
5414, 1.2500000e-02, 1.1250000e-01, 1.2900000e-03
5415, 2.5000000e-02, 1.1250000e-01, 1.2900000e-03
5416, 3.7500000e-02, 1.1250000e-01, 1.2900000e-03
5417, 5.0000000e-02, 1.1250000e-01, 1.2900000e-03
5418, 6.2500000e-02, 1.1250000e-01, 1.2900000e-03
5419, 7.5000000e-02, 1.1250000e-01, 1.2900000e-03
5420, 8.7500000e-02, 1.1250000e-01, 1.2900000e-03
5421, 1.0000000e-01, 1.1250000e-01, 1.2900000e-03
5422, 1.1250000e-01, 1.1250000e-01, 1.2900000e-03
5423, 1.2500000e-01, 1.1250000e-01, 1.2900000e-03
5424, 1.3750000e-01, 1.1250000e-01, 1.2900000e-03
5425, 1.5000000e-01, 1.1250000e-01, 1.2900000e-03
5426, 1.6250000e-01, 1.1250000e-01, 1.2900000e-03
5427, 1.7500000e-01, 1.1250000e-01, 1.2900000e-03
5428, 1.8750000e-01, 1.1250000e-01, 1.2900000e-03
5429, 2.0000000e-01, 1.1250000e-01, 1.2900000e-03
5430, 2.1250000e-01, 1.1250000e-01, 1.2900000e-03
5431, 2.2500000e-01, 1.1250000e-01, 1.2900000e-03
5432, 2.3750000e-01, 1.1250000e-01, 1.2900000e-03
5433, 2.5000000e-01, 1.1250000e-01, 1.2900000e-03
5434, 2.6250000e-01, 1.1250000e-01, 1.2900000e-03
5435, 2.7500000e-01, 1.1250000e-01, 1.2900000e-03
5436, 2.8750000e-01, 1.1250000e-01, 1.2900000e-03
5437, 3.0000000e-01, 1.1250000e-01, 1.2900000e-03
5438, 3.1250000e-01, 1.1250000e-01, 1.2900000e-03
5439, 3.2500000e-01, 1.1250000e-01, 1.2900000e-03
5440, 3.3750000e-01, 1.1250000e-01, 1.2900000e-03
5441, 3.5000000e-01, 1.1250000e-01, 1.2900000e-03
5442, 3.6250000e-01, 1.1250000e-01, 1.2900000e-03
5443, 3.7500000e-01, 1.1250000e-01, 1.2900000e-03
5444, 3.8750000e-01, 1.1250000e-01, 1.2900000e-03
5445, 4.0000000e-01, 1.1250000e-01, 1.2900000e-03
5446, 4.1250000e-01, 1.1250000e-01, 1.2900000e-03
5447, 4.2500000e-01, 1.1250000e-01, 1.2900000e-03
5448, 4.3750000e-01, 1.1250000e-01, 1.2900000e-03
5449, 4.5000000e-01, 1.1250000e-01, 1.2900000e-03
5450, 4.6250000e-01, 1.1250000e-01, 1.2900000e-03
5451, 4.7500000e-01, 1.1250000e-01, 1.2900000e-03
5452, 4.8750000e-01, 1.1250000e-01, 1.2900000e-03
5453, 5.0000000e-01, 1.1250000e-01, 1.2900000e-03
5454, 0.0000000e+00, 1.2500000e-01, 1.2900000e-03
5455, 1.2500000e-02, 1.2500000e-01, 1.2900000e-03
5456, 2.5000000e-02, 1.2500000e-01, 1.2900000e-03
5457, 3.7500000e-02, 1.2500000e-01, 1.2900000e-03
5458, 5.0000000e-02, 1.2500000e-01, 1.2900000e-03
5459, 6.2500000e-02, 1.2500000e-01, 1.2900000e-03
5460, 7.5000000e-02, 1.2500000e-01, 1.2900000e-03
5461, 8.7500000e-02, 1.2500000e-01, 1.2900000e-03
5462, 1.0000000e-01, 1.2500000e-01, 1.2900000e-03
5463, 1.1250000e-01, 1.2500000e-01, 1.2900000e-03
5464, 1.2500000e-01, 1.2500000e-01, 1.2900000e-03
5465, 1.3750000e-01, 1.2500000e-01, 1.2900000e-03
5466, 1.5000000e-01, 1.2500000e-01, 1.2900000e-03
5467, 1.6250000e-01, 1.2500000e-01, 1.2900000e-03
5468, 1.7500000e-01, 1.2500000e-01, 1.2900000e-03
5469, 1.8750000e-01, 1.2500000e-01, 1.2900000e-03
5470, 2.0000000e-01, 1.2500000e-01, 1.2900000e-03
5471, 2.1250000e-01, 1.2500000e-01, 1.2900000e-03
5472, 2.2500000e-01, 1.2500000e-01, 1.2900000e-03
5473, 2.3750000e-01, 1.2500000e-01, 1.2900000e-03
5474, 2.5000000e-01, 1.2500000e-01, 1.2900000e-03
5475, 2.6250000e-01, 1.2500000e-01, 1.2900000e-03
5476, 2.7500000e-01, 1.2500000e-01, 1.2900000e-03
5477, 2.8750000e-01, 1.2500000e-01, 1.2900000e-03
5478, 3.0000000e-01, 1.2500000e-01, 1.2900000e-03
5479, 3.1250000e-01, 1.2500000e-01, 1.2900000e-03
5480, 3.2500000e-01, 1.2500000e-01, 1.2900000e-03
5481, 3.3750000e-01, 1.2500000e-01, 1.2900000e-03
5482, 3.5000000e-01, 1.2500000e-01, 1.2900000e-03
5483, 3.6250000e-01, 1.2500000e-01, 1.2900000e-03
5484, 3.7500000e-01, 1.2500000e-01, 1.2900000e-03
5485, 3.8750000e-01, 1.2500000e-01, 1.2900000e-03
5486, 4.0000000e-01, 1.2500000e-01, 1.2900000e-03
5487, 4.1250000e-01, 1.2500000e-01, 1.2900000e-03
5488, 4.2500000e-01, 1.2500000e-01, 1.2900000e-03
5489, 4.3750000e-01, 1.2500000e-01, 1.2900000e-03
5490, 4.5000000e-01, 1.2500000e-01, 1.2900000e-03
5491, 4.6250000e-01, 1.2500000e-01, 1.2900000e-03
5492, 4.7500000e-01, 1.2500000e-01, 1.2900000e-03
5493, 4.8750000e-01, 1.2500000e-01, 1.2900000e-03
5494, 5.0000000e-01, 1.2500000e-01, 1.2900000e-03
5495, 0.0000000e+00, 1.3750000e-01, 1.2900000e-03
5496, 1.2500000e-02, 1.3750000e-01, 1.2900000e-03
5497, 2.5000000e-02, 1.3750000e-01, 1.2900000e-03
5498, 3.7500000e-02, 1.3750000e-01, 1.2900000e-03
5499, 5.0000000e-02, 1.3750000e-01, 1.2900000e-03
5500, 6.2500000e-02, 1.3750000e-01, 1.2900000e-03
5501, 7.5000000e-02, 1.3750000e-01, 1.2900000e-03
5502, 8.7500000e-02, 1.3750000e-01, 1.2900000e-03
5503, 1.0000000e-01, 1.3750000e-01, 1.2900000e-03
5504, 1.1250000e-01, 1.3750000e-01, 1.2900000e-03
5505, 1.2500000e-01, 1.3750000e-01, 1.2900000e-03
5506, 1.3750000e-01, 1.3750000e-01, 1.2900000e-03
5507, 1.5000000e-01, 1.3750000e-01, 1.2900000e-03
5508, 1.6250000e-01, 1.3750000e-01, 1.2900000e-03
5509, 1.7500000e-01, 1.3750000e-01, 1.2900000e-03
5510, 1.8750000e-01, 1.3750000e-01, 1.2900000e-03
5511, 2.0000000e-01, 1.3750000e-01, 1.2900000e-03
5512, 2.1250000e-01, 1.3750000e-01, 1.2900000e-03
5513, 2.2500000e-01, 1.3750000e-01, 1.2900000e-03
5514, 2.3750000e-01, 1.3750000e-01, 1.2900000e-03
5515, 2.5000000e-01, 1.3750000e-01, 1.2900000e-03
5516, 2.6250000e-01, 1.3750000e-01, 1.2900000e-03
5517, 2.7500000e-01, 1.3750000e-01, 1.2900000e-03
5518, 2.8750000e-01, 1.3750000e-01, 1.2900000e-03
5519, 3.0000000e-01, 1.3750000e-01, 1.2900000e-03
5520, 3.1250000e-01, 1.3750000e-01, 1.2900000e-03
5521, 3.2500000e-01, 1.3750000e-01, 1.2900000e-03
5522, 3.3750000e-01, 1.3750000e-01, 1.2900000e-03
5523, 3.5000000e-01, 1.3750000e-01, 1.2900000e-03
5524, 3.6250000e-01, 1.3750000e-01, 1.2900000e-03
5525, 3.7500000e-01, 1.3750000e-01, 1.2900000e-03
5526, 3.8750000e-01, 1.3750000e-01, 1.2900000e-03
5527, 4.0000000e-01, 1.3750000e-01, 1.2900000e-03
5528, 4.1250000e-01, 1.3750000e-01, 1.2900000e-03
5529, 4.2500000e-01, 1.3750000e-01, 1.2900000e-03
5530, 4.3750000e-01, 1.3750000e-01, 1.2900000e-03
5531, 4.5000000e-01, 1.3750000e-01, 1.2900000e-03
5532, 4.6250000e-01, 1.3750000e-01, 1.2900000e-03
5533, 4.7500000e-01, 1.3750000e-01, 1.2900000e-03
5534, 4.8750000e-01, 1.3750000e-01, 1.2900000e-03
5535, 5.0000000e-01, 1.3750000e-01, 1.2900000e-03
5536, 0.0000000e+00, 1.5000000e-01, 1.2900000e-03
5537, 1.2500000e-02, 1.5000000e-01, 1.2900000e-03
5538, 2.5000000e-02, 1.5000000e-01, 1.2900000e-03
5539, 3.7500000e-02, 1.5000000e-01, 1.2900000e-03
5540, 5.0000000e-02, 1.5000000e-01, 1.2900000e-03
5541, 6.2500000e-02, 1.5000000e-01, 1.2900000e-03
5542, 7.5000000e-02, 1.5000000e-01, 1.2900000e-03
5543, 8.7500000e-02, 1.5000000e-01, 1.2900000e-03
5544, 1.0000000e-01, 1.5000000e-01, 1.2900000e-03
5545, 1.1250000e-01, 1.5000000e-01, 1.2900000e-03
5546, 1.2500000e-01, 1.5000000e-01, 1.2900000e-03
5547, 1.3750000e-01, 1.5000000e-01, 1.2900000e-03
5548, 1.5000000e-01, 1.5000000e-01, 1.2900000e-03
5549, 1.6250000e-01, 1.5000000e-01, 1.2900000e-03
5550, 1.7500000e-01, 1.5000000e-01, 1.2900000e-03
5551, 1.8750000e-01, 1.5000000e-01, 1.2900000e-03
5552, 2.0000000e-01, 1.5000000e-01, 1.2900000e-03
5553, 2.1250000e-01, 1.5000000e-01, 1.2900000e-03
5554, 2.2500000e-01, 1.5000000e-01, 1.2900000e-03
5555, 2.3750000e-01, 1.5000000e-01, 1.2900000e-03
5556, 2.5000000e-01, 1.5000000e-01, 1.2900000e-03
5557, 2.6250000e-01, 1.5000000e-01, 1.2900000e-03
5558, 2.7500000e-01, 1.5000000e-01, 1.2900000e-03
5559, 2.8750000e-01, 1.5000000e-01, 1.2900000e-03
5560, 3.0000000e-01, 1.5000000e-01, 1.2900000e-03
5561, 3.1250000e-01, 1.5000000e-01, 1.2900000e-03
5562, 3.2500000e-01, 1.5000000e-01, 1.2900000e-03
5563, 3.3750000e-01, 1.5000000e-01, 1.2900000e-03
5564, 3.5000000e-01, 1.5000000e-01, 1.2900000e-03
5565, 3.6250000e-01, 1.5000000e-01, 1.2900000e-03
5566, 3.7500000e-01, 1.5000000e-01, 1.2900000e-03
5567, 3.8750000e-01, 1.5000000e-01, 1.2900000e-03
5568, 4.0000000e-01, 1.5000000e-01, 1.2900000e-03
5569, 4.1250000e-01, 1.5000000e-01, 1.2900000e-03
5570, 4.2500000e-01, 1.5000000e-01, 1.2900000e-03
5571, 4.3750000e-01, 1.5000000e-01, 1.2900000e-03
5572, 4.5000000e-01, 1.5000000e-01, 1.2900000e-03
5573, 4.6250000e-01, 1.5000000e-01, 1.2900000e-03
5574, 4.7500000e-01, 1.5000000e-01, 1.2900000e-03
5575, 4.8750000e-01, 1.5000000e-01, 1.2900000e-03
5576, 5.0000000e-01, 1.5000000e-01, 1.2900000e-03
5577, 0.0000000e+00, 1.6250000e-01, 1.2900000e-03
5578, 1.2500000e-02, 1.6250000e-01, 1.2900000e-03
5579, 2.5000000e-02, 1.6250000e-01, 1.2900000e-03
5580, 3.7500000e-02, 1.6250000e-01, 1.2900000e-03
5581, 5.0000000e-02, 1.6250000e-01, 1.2900000e-03
5582, 6.2500000e-02, 1.6250000e-01, 1.2900000e-03
5583, 7.5000000e-02, 1.6250000e-01, 1.2900000e-03
5584, 8.7500000e-02, 1.6250000e-01, 1.2900000e-03
5585, 1.0000000e-01, 1.6250000e-01, 1.2900000e-03
5586, 1.1250000e-01, 1.6250000e-01, 1.2900000e-03
5587, 1.2500000e-01, 1.6250000e-01, 1.2900000e-03
5588, 1.3750000e-01, 1.6250000e-01, 1.2900000e-03
5589, 1.5000000e-01, 1.6250000e-01, 1.2900000e-03
5590, 1.6250000e-01, 1.6250000e-01, 1.2900000e-03
5591, 1.7500000e-01, 1.6250000e-01, 1.2900000e-03
5592, 1.8750000e-01, 1.6250000e-01, 1.2900000e-03
5593, 2.0000000e-01, 1.6250000e-01, 1.2900000e-03
5594, 2.1250000e-01, 1.6250000e-01, 1.2900000e-03
5595, 2.2500000e-01, 1.6250000e-01, 1.2900000e-03
5596, 2.3750000e-01, 1.6250000e-01, 1.2900000e-03
5597, 2.5000000e-01, 1.6250000e-01, 1.2900000e-03
5598, 2.6250000e-01, 1.6250000e-01, 1.2900000e-03
5599, 2.7500000e-01, 1.6250000e-01, 1.2900000e-03
5600, 2.8750000e-01, 1.6250000e-01, 1.2900000e-03
5601, 3.0000000e-01, 1.6250000e-01, 1.2900000e-03
5602, 3.1250000e-01, 1.6250000e-01, 1.2900000e-03
5603, 3.2500000e-01, 1.6250000e-01, 1.2900000e-03
5604, 3.3750000e-01, 1.6250000e-01, 1.2900000e-03
5605, 3.5000000e-01, 1.6250000e-01, 1.2900000e-03
5606, 3.6250000e-01, 1.6250000e-01, 1.2900000e-03
5607, 3.7500000e-01, 1.6250000e-01, 1.2900000e-03
5608, 3.8750000e-01, 1.6250000e-01, 1.2900000e-03
5609, 4.0000000e-01, 1.6250000e-01, 1.2900000e-03
5610, 4.1250000e-01, 1.6250000e-01, 1.2900000e-03
5611, 4.2500000e-01, 1.6250000e-01, 1.2900000e-03
5612, 4.3750000e-01, 1.6250000e-01, 1.2900000e-03
5613, 4.5000000e-01, 1.6250000e-01, 1.2900000e-03
5614, 4.6250000e-01, 1.6250000e-01, 1.2900000e-03
5615, 4.7500000e-01, 1.6250000e-01, 1.2900000e-03
5616, 4.8750000e-01, 1.6250000e-01, 1.2900000e-03
5617, 5.0000000e-01, 1.6250000e-01, 1.2900000e-03
5618, 0.0000000e+00, 1.7500000e-01, 1.2900000e-03
5619, 1.2500000e-02, 1.7500000e-01, 1.2900000e-03
5620, 2.5000000e-02, 1.7500000e-01, 1.2900000e-03
5621, 3.7500000e-02, 1.7500000e-01, 1.2900000e-03
5622, 5.0000000e-02, 1.7500000e-01, 1.2900000e-03
5623, 6.2500000e-02, 1.7500000e-01, 1.2900000e-03
5624, 7.5000000e-02, 1.7500000e-01, 1.2900000e-03
5625, 8.7500000e-02, 1.7500000e-01, 1.2900000e-03
5626, 1.0000000e-01, 1.7500000e-01, 1.2900000e-03
5627, 1.1250000e-01, 1.7500000e-01, 1.2900000e-03
5628, 1.2500000e-01, 1.7500000e-01, 1.2900000e-03
5629, 1.3750000e-01, 1.7500000e-01, 1.2900000e-03
5630, 1.5000000e-01, 1.7500000e-01, 1.2900000e-03
5631, 1.6250000e-01, 1.7500000e-01, 1.2900000e-03
5632, 1.7500000e-01, 1.7500000e-01, 1.2900000e-03
5633, 1.8750000e-01, 1.7500000e-01, 1.2900000e-03
5634, 2.0000000e-01, 1.7500000e-01, 1.2900000e-03
5635, 2.1250000e-01, 1.7500000e-01, 1.2900000e-03
5636, 2.2500000e-01, 1.7500000e-01, 1.2900000e-03
5637, 2.3750000e-01, 1.7500000e-01, 1.2900000e-03
5638, 2.5000000e-01, 1.7500000e-01, 1.2900000e-03
5639, 2.6250000e-01, 1.7500000e-01, 1.2900000e-03
5640, 2.7500000e-01, 1.7500000e-01, 1.2900000e-03
5641, 2.8750000e-01, 1.7500000e-01, 1.2900000e-03
5642, 3.0000000e-01, 1.7500000e-01, 1.2900000e-03
5643, 3.1250000e-01, 1.7500000e-01, 1.2900000e-03
5644, 3.2500000e-01, 1.7500000e-01, 1.2900000e-03
5645, 3.3750000e-01, 1.7500000e-01, 1.2900000e-03
5646, 3.5000000e-01, 1.7500000e-01, 1.2900000e-03
5647, 3.6250000e-01, 1.7500000e-01, 1.2900000e-03
5648, 3.7500000e-01, 1.7500000e-01, 1.2900000e-03
5649, 3.8750000e-01, 1.7500000e-01, 1.2900000e-03
5650, 4.0000000e-01, 1.7500000e-01, 1.2900000e-03
5651, 4.1250000e-01, 1.7500000e-01, 1.2900000e-03
5652, 4.2500000e-01, 1.7500000e-01, 1.2900000e-03
5653, 4.3750000e-01, 1.7500000e-01, 1.2900000e-03
5654, 4.5000000e-01, 1.7500000e-01, 1.2900000e-03
5655, 4.6250000e-01, 1.7500000e-01, 1.2900000e-03
5656, 4.7500000e-01, 1.7500000e-01, 1.2900000e-03
5657, 4.8750000e-01, 1.7500000e-01, 1.2900000e-03
5658, 5.0000000e-01, 1.7500000e-01, 1.2900000e-03
5659, 0.0000000e+00, 1.8750000e-01, 1.2900000e-03
5660, 1.2500000e-02, 1.8750000e-01, 1.2900000e-03
5661, 2.5000000e-02, 1.8750000e-01, 1.2900000e-03
5662, 3.7500000e-02, 1.8750000e-01, 1.2900000e-03
5663, 5.0000000e-02, 1.8750000e-01, 1.2900000e-03
5664, 6.2500000e-02, 1.8750000e-01, 1.2900000e-03
5665, 7.5000000e-02, 1.8750000e-01, 1.2900000e-03
5666, 8.7500000e-02, 1.8750000e-01, 1.2900000e-03
5667, 1.0000000e-01, 1.8750000e-01, 1.2900000e-03
5668, 1.1250000e-01, 1.8750000e-01, 1.2900000e-03
5669, 1.2500000e-01, 1.8750000e-01, 1.2900000e-03
5670, 1.3750000e-01, 1.8750000e-01, 1.2900000e-03
5671, 1.5000000e-01, 1.8750000e-01, 1.2900000e-03
5672, 1.6250000e-01, 1.8750000e-01, 1.2900000e-03
5673, 1.7500000e-01, 1.8750000e-01, 1.2900000e-03
5674, 1.8750000e-01, 1.8750000e-01, 1.2900000e-03
5675, 2.0000000e-01, 1.8750000e-01, 1.2900000e-03
5676, 2.1250000e-01, 1.8750000e-01, 1.2900000e-03
5677, 2.2500000e-01, 1.8750000e-01, 1.2900000e-03
5678, 2.3750000e-01, 1.8750000e-01, 1.2900000e-03
5679, 2.5000000e-01, 1.8750000e-01, 1.2900000e-03
5680, 2.6250000e-01, 1.8750000e-01, 1.2900000e-03
5681, 2.7500000e-01, 1.8750000e-01, 1.2900000e-03
5682, 2.8750000e-01, 1.8750000e-01, 1.2900000e-03
5683, 3.0000000e-01, 1.8750000e-01, 1.2900000e-03
5684, 3.1250000e-01, 1.8750000e-01, 1.2900000e-03
5685, 3.2500000e-01, 1.8750000e-01, 1.2900000e-03
5686, 3.3750000e-01, 1.8750000e-01, 1.2900000e-03
5687, 3.5000000e-01, 1.8750000e-01, 1.2900000e-03
5688, 3.6250000e-01, 1.8750000e-01, 1.2900000e-03
5689, 3.7500000e-01, 1.8750000e-01, 1.2900000e-03
5690, 3.8750000e-01, 1.8750000e-01, 1.2900000e-03
5691, 4.0000000e-01, 1.8750000e-01, 1.2900000e-03
5692, 4.1250000e-01, 1.8750000e-01, 1.2900000e-03
5693, 4.2500000e-01, 1.8750000e-01, 1.2900000e-03
5694, 4.3750000e-01, 1.8750000e-01, 1.2900000e-03
5695, 4.5000000e-01, 1.8750000e-01, 1.2900000e-03
5696, 4.6250000e-01, 1.8750000e-01, 1.2900000e-03
5697, 4.7500000e-01, 1.8750000e-01, 1.2900000e-03
5698, 4.8750000e-01, 1.8750000e-01, 1.2900000e-03
5699, 5.0000000e-01, 1.8750000e-01, 1.2900000e-03
5700, 0.0000000e+00, 2.0000000e-01, 1.2900000e-03
5701, 1.2500000e-02, 2.0000000e-01, 1.2900000e-03
5702, 2.5000000e-02, 2.0000000e-01, 1.2900000e-03
5703, 3.7500000e-02, 2.0000000e-01, 1.2900000e-03
5704, 5.0000000e-02, 2.0000000e-01, 1.2900000e-03
5705, 6.2500000e-02, 2.0000000e-01, 1.2900000e-03
5706, 7.5000000e-02, 2.0000000e-01, 1.2900000e-03
5707, 8.7500000e-02, 2.0000000e-01, 1.2900000e-03
5708, 1.0000000e-01, 2.0000000e-01, 1.2900000e-03
5709, 1.1250000e-01, 2.0000000e-01, 1.2900000e-03
5710, 1.2500000e-01, 2.0000000e-01, 1.2900000e-03
5711, 1.3750000e-01, 2.0000000e-01, 1.2900000e-03
5712, 1.5000000e-01, 2.0000000e-01, 1.2900000e-03
5713, 1.6250000e-01, 2.0000000e-01, 1.2900000e-03
5714, 1.7500000e-01, 2.0000000e-01, 1.2900000e-03
5715, 1.8750000e-01, 2.0000000e-01, 1.2900000e-03
5716, 2.0000000e-01, 2.0000000e-01, 1.2900000e-03
5717, 2.1250000e-01, 2.0000000e-01, 1.2900000e-03
5718, 2.2500000e-01, 2.0000000e-01, 1.2900000e-03
5719, 2.3750000e-01, 2.0000000e-01, 1.2900000e-03
5720, 2.5000000e-01, 2.0000000e-01, 1.2900000e-03
5721, 2.6250000e-01, 2.0000000e-01, 1.2900000e-03
5722, 2.7500000e-01, 2.0000000e-01, 1.2900000e-03
5723, 2.8750000e-01, 2.0000000e-01, 1.2900000e-03
5724, 3.0000000e-01, 2.0000000e-01, 1.2900000e-03
5725, 3.1250000e-01, 2.0000000e-01, 1.2900000e-03
5726, 3.2500000e-01, 2.0000000e-01, 1.2900000e-03
5727, 3.3750000e-01, 2.0000000e-01, 1.2900000e-03
5728, 3.5000000e-01, 2.0000000e-01, 1.2900000e-03
5729, 3.6250000e-01, 2.0000000e-01, 1.2900000e-03
5730, 3.7500000e-01, 2.0000000e-01, 1.2900000e-03
5731, 3.8750000e-01, 2.0000000e-01, 1.2900000e-03
5732, 4.0000000e-01, 2.0000000e-01, 1.2900000e-03
5733, 4.1250000e-01, 2.0000000e-01, 1.2900000e-03
5734, 4.2500000e-01, 2.0000000e-01, 1.2900000e-03
5735, 4.3750000e-01, 2.0000000e-01, 1.2900000e-03
5736, 4.5000000e-01, 2.0000000e-01, 1.2900000e-03
5737, 4.6250000e-01, 2.0000000e-01, 1.2900000e-03
5738, 4.7500000e-01, 2.0000000e-01, 1.2900000e-03
5739, 4.8750000e-01, 2.0000000e-01, 1.2900000e-03
5740, 5.0000000e-01, 2.0000000e-01, 1.2900000e-03
5741, 0.0000000e+00, 2.1250000e-01, 1.2900000e-03
5742, 1.2500000e-02, 2.1250000e-01, 1.2900000e-03
5743, 2.5000000e-02, 2.1250000e-01, 1.2900000e-03
5744, 3.7500000e-02, 2.1250000e-01, 1.2900000e-03
5745, 5.0000000e-02, 2.1250000e-01, 1.2900000e-03
5746, 6.2500000e-02, 2.1250000e-01, 1.2900000e-03
5747, 7.5000000e-02, 2.1250000e-01, 1.2900000e-03
5748, 8.7500000e-02, 2.1250000e-01, 1.2900000e-03
5749, 1.0000000e-01, 2.1250000e-01, 1.2900000e-03
5750, 1.1250000e-01, 2.1250000e-01, 1.2900000e-03
5751, 1.2500000e-01, 2.1250000e-01, 1.2900000e-03
5752, 1.3750000e-01, 2.1250000e-01, 1.2900000e-03
5753, 1.5000000e-01, 2.1250000e-01, 1.2900000e-03
5754, 1.6250000e-01, 2.1250000e-01, 1.2900000e-03
5755, 1.7500000e-01, 2.1250000e-01, 1.2900000e-03
5756, 1.8750000e-01, 2.1250000e-01, 1.2900000e-03
5757, 2.0000000e-01, 2.1250000e-01, 1.2900000e-03
5758, 2.1250000e-01, 2.1250000e-01, 1.2900000e-03
5759, 2.2500000e-01, 2.1250000e-01, 1.2900000e-03
5760, 2.3750000e-01, 2.1250000e-01, 1.2900000e-03
5761, 2.5000000e-01, 2.1250000e-01, 1.2900000e-03
5762, 2.6250000e-01, 2.1250000e-01, 1.2900000e-03
5763, 2.7500000e-01, 2.1250000e-01, 1.2900000e-03
5764, 2.8750000e-01, 2.1250000e-01, 1.2900000e-03
5765, 3.0000000e-01, 2.1250000e-01, 1.2900000e-03
5766, 3.1250000e-01, 2.1250000e-01, 1.2900000e-03
5767, 3.2500000e-01, 2.1250000e-01, 1.2900000e-03
5768, 3.3750000e-01, 2.1250000e-01, 1.2900000e-03
5769, 3.5000000e-01, 2.1250000e-01, 1.2900000e-03
5770, 3.6250000e-01, 2.1250000e-01, 1.2900000e-03
5771, 3.7500000e-01, 2.1250000e-01, 1.2900000e-03
5772, 3.8750000e-01, 2.1250000e-01, 1.2900000e-03
5773, 4.0000000e-01, 2.1250000e-01, 1.2900000e-03
5774, 4.1250000e-01, 2.1250000e-01, 1.2900000e-03
5775, 4.2500000e-01, 2.1250000e-01, 1.2900000e-03
5776, 4.3750000e-01, 2.1250000e-01, 1.2900000e-03
5777, 4.5000000e-01, 2.1250000e-01, 1.2900000e-03
5778, 4.6250000e-01, 2.1250000e-01, 1.2900000e-03
5779, 4.7500000e-01, 2.1250000e-01, 1.2900000e-03
5780, 4.8750000e-01, 2.1250000e-01, 1.2900000e-03
5781, 5.0000000e-01, 2.1250000e-01, 1.2900000e-03
5782, 0.0000000e+00, 2.2500000e-01, 1.2900000e-03
5783, 1.2500000e-02, 2.2500000e-01, 1.2900000e-03
5784, 2.5000000e-02, 2.2500000e-01, 1.2900000e-03
5785, 3.7500000e-02, 2.2500000e-01, 1.2900000e-03
5786, 5.0000000e-02, 2.2500000e-01, 1.2900000e-03
5787, 6.2500000e-02, 2.2500000e-01, 1.2900000e-03
5788, 7.5000000e-02, 2.2500000e-01, 1.2900000e-03
5789, 8.7500000e-02, 2.2500000e-01, 1.2900000e-03
5790, 1.0000000e-01, 2.2500000e-01, 1.2900000e-03
5791, 1.1250000e-01, 2.2500000e-01, 1.2900000e-03
5792, 1.2500000e-01, 2.2500000e-01, 1.2900000e-03
5793, 1.3750000e-01, 2.2500000e-01, 1.2900000e-03
5794, 1.5000000e-01, 2.2500000e-01, 1.2900000e-03
5795, 1.6250000e-01, 2.2500000e-01, 1.2900000e-03
5796, 1.7500000e-01, 2.2500000e-01, 1.2900000e-03
5797, 1.8750000e-01, 2.2500000e-01, 1.2900000e-03
5798, 2.0000000e-01, 2.2500000e-01, 1.2900000e-03
5799, 2.1250000e-01, 2.2500000e-01, 1.2900000e-03
5800, 2.2500000e-01, 2.2500000e-01, 1.2900000e-03
5801, 2.3750000e-01, 2.2500000e-01, 1.2900000e-03
5802, 2.5000000e-01, 2.2500000e-01, 1.2900000e-03
5803, 2.6250000e-01, 2.2500000e-01, 1.2900000e-03
5804, 2.7500000e-01, 2.2500000e-01, 1.2900000e-03
5805, 2.8750000e-01, 2.2500000e-01, 1.2900000e-03
5806, 3.0000000e-01, 2.2500000e-01, 1.2900000e-03
5807, 3.1250000e-01, 2.2500000e-01, 1.2900000e-03
5808, 3.2500000e-01, 2.2500000e-01, 1.2900000e-03
5809, 3.3750000e-01, 2.2500000e-01, 1.2900000e-03
5810, 3.5000000e-01, 2.2500000e-01, 1.2900000e-03
5811, 3.6250000e-01, 2.2500000e-01, 1.2900000e-03
5812, 3.7500000e-01, 2.2500000e-01, 1.2900000e-03
5813, 3.8750000e-01, 2.2500000e-01, 1.2900000e-03
5814, 4.0000000e-01, 2.2500000e-01, 1.2900000e-03
5815, 4.1250000e-01, 2.2500000e-01, 1.2900000e-03
5816, 4.2500000e-01, 2.2500000e-01, 1.2900000e-03
5817, 4.3750000e-01, 2.2500000e-01, 1.2900000e-03
5818, 4.5000000e-01, 2.2500000e-01, 1.2900000e-03
5819, 4.6250000e-01, 2.2500000e-01, 1.2900000e-03
5820, 4.7500000e-01, 2.2500000e-01, 1.2900000e-03
5821, 4.8750000e-01, 2.2500000e-01, 1.2900000e-03
5822, 5.0000000e-01, 2.2500000e-01, 1.2900000e-03
5823, 0.0000000e+00, 2.3750000e-01, 1.2900000e-03
5824, 1.2500000e-02, 2.3750000e-01, 1.2900000e-03
5825, 2.5000000e-02, 2.3750000e-01, 1.2900000e-03
5826, 3.7500000e-02, 2.3750000e-01, 1.2900000e-03
5827, 5.0000000e-02, 2.3750000e-01, 1.2900000e-03
5828, 6.2500000e-02, 2.3750000e-01, 1.2900000e-03
5829, 7.5000000e-02, 2.3750000e-01, 1.2900000e-03
5830, 8.7500000e-02, 2.3750000e-01, 1.2900000e-03
5831, 1.0000000e-01, 2.3750000e-01, 1.2900000e-03
5832, 1.1250000e-01, 2.3750000e-01, 1.2900000e-03
5833, 1.2500000e-01, 2.3750000e-01, 1.2900000e-03
5834, 1.3750000e-01, 2.3750000e-01, 1.2900000e-03
5835, 1.5000000e-01, 2.3750000e-01, 1.2900000e-03
5836, 1.6250000e-01, 2.3750000e-01, 1.2900000e-03
5837, 1.7500000e-01, 2.3750000e-01, 1.2900000e-03
5838, 1.8750000e-01, 2.3750000e-01, 1.2900000e-03
5839, 2.0000000e-01, 2.3750000e-01, 1.2900000e-03
5840, 2.1250000e-01, 2.3750000e-01, 1.2900000e-03
5841, 2.2500000e-01, 2.3750000e-01, 1.2900000e-03
5842, 2.3750000e-01, 2.3750000e-01, 1.2900000e-03
5843, 2.5000000e-01, 2.3750000e-01, 1.2900000e-03
5844, 2.6250000e-01, 2.3750000e-01, 1.2900000e-03
5845, 2.7500000e-01, 2.3750000e-01, 1.2900000e-03
5846, 2.8750000e-01, 2.3750000e-01, 1.2900000e-03
5847, 3.0000000e-01, 2.3750000e-01, 1.2900000e-03
5848, 3.1250000e-01, 2.3750000e-01, 1.2900000e-03
5849, 3.2500000e-01, 2.3750000e-01, 1.2900000e-03
5850, 3.3750000e-01, 2.3750000e-01, 1.2900000e-03
5851, 3.5000000e-01, 2.3750000e-01, 1.2900000e-03
5852, 3.6250000e-01, 2.3750000e-01, 1.2900000e-03
5853, 3.7500000e-01, 2.3750000e-01, 1.2900000e-03
5854, 3.8750000e-01, 2.3750000e-01, 1.2900000e-03
5855, 4.0000000e-01, 2.3750000e-01, 1.2900000e-03
5856, 4.1250000e-01, 2.3750000e-01, 1.2900000e-03
5857, 4.2500000e-01, 2.3750000e-01, 1.2900000e-03
5858, 4.3750000e-01, 2.3750000e-01, 1.2900000e-03
5859, 4.5000000e-01, 2.3750000e-01, 1.2900000e-03
5860, 4.6250000e-01, 2.3750000e-01, 1.2900000e-03
5861, 4.7500000e-01, 2.3750000e-01, 1.2900000e-03
5862, 4.8750000e-01, 2.3750000e-01, 1.2900000e-03
5863, 5.0000000e-01, 2.3750000e-01, 1.2900000e-03
5864, 0.0000000e+00, 2.5000000e-01, 1.2900000e-03
5865, 1.2500000e-02, 2.5000000e-01, 1.2900000e-03
5866, 2.5000000e-02, 2.5000000e-01, 1.2900000e-03
5867, 3.7500000e-02, 2.5000000e-01, 1.2900000e-03
5868, 5.0000000e-02, 2.5000000e-01, 1.2900000e-03
5869, 6.2500000e-02, 2.5000000e-01, 1.2900000e-03
5870, 7.5000000e-02, 2.5000000e-01, 1.2900000e-03
5871, 8.7500000e-02, 2.5000000e-01, 1.2900000e-03
5872, 1.0000000e-01, 2.5000000e-01, 1.2900000e-03
5873, 1.1250000e-01, 2.5000000e-01, 1.2900000e-03
5874, 1.2500000e-01, 2.5000000e-01, 1.2900000e-03
5875, 1.3750000e-01, 2.5000000e-01, 1.2900000e-03
5876, 1.5000000e-01, 2.5000000e-01, 1.2900000e-03
5877, 1.6250000e-01, 2.5000000e-01, 1.2900000e-03
5878, 1.7500000e-01, 2.5000000e-01, 1.2900000e-03
5879, 1.8750000e-01, 2.5000000e-01, 1.2900000e-03
5880, 2.0000000e-01, 2.5000000e-01, 1.2900000e-03
5881, 2.1250000e-01, 2.5000000e-01, 1.2900000e-03
5882, 2.2500000e-01, 2.5000000e-01, 1.2900000e-03
5883, 2.3750000e-01, 2.5000000e-01, 1.2900000e-03
5884, 2.5000000e-01, 2.5000000e-01, 1.2900000e-03
5885, 2.6250000e-01, 2.5000000e-01, 1.2900000e-03
5886, 2.7500000e-01, 2.5000000e-01, 1.2900000e-03
5887, 2.8750000e-01, 2.5000000e-01, 1.2900000e-03
5888, 3.0000000e-01, 2.5000000e-01, 1.2900000e-03
5889, 3.1250000e-01, 2.5000000e-01, 1.2900000e-03
5890, 3.2500000e-01, 2.5000000e-01, 1.2900000e-03
5891, 3.3750000e-01, 2.5000000e-01, 1.2900000e-03
5892, 3.5000000e-01, 2.5000000e-01, 1.2900000e-03
5893, 3.6250000e-01, 2.5000000e-01, 1.2900000e-03
5894, 3.7500000e-01, 2.5000000e-01, 1.2900000e-03
5895, 3.8750000e-01, 2.5000000e-01, 1.2900000e-03
5896, 4.0000000e-01, 2.5000000e-01, 1.2900000e-03
5897, 4.1250000e-01, 2.5000000e-01, 1.2900000e-03
5898, 4.2500000e-01, 2.5000000e-01, 1.2900000e-03
5899, 4.3750000e-01, 2.5000000e-01, 1.2900000e-03
5900, 4.5000000e-01, 2.5000000e-01, 1.2900000e-03
5901, 4.6250000e-01, 2.5000000e-01, 1.2900000e-03
5902, 4.7500000e-01, 2.5000000e-01, 1.2900000e-03
5903, 4.8750000e-01, 2.5000000e-01, 1.2900000e-03
5904, 5.0000000e-01, 2.5000000e-01, 1.2900000e-03
5905, 0.0000000e+00, 2.6250000e-01, 1.2900000e-03
5906, 1.2500000e-02, 2.6250000e-01, 1.2900000e-03
5907, 2.5000000e-02, 2.6250000e-01, 1.2900000e-03
5908, 3.7500000e-02, 2.6250000e-01, 1.2900000e-03
5909, 5.0000000e-02, 2.6250000e-01, 1.2900000e-03
5910, 6.2500000e-02, 2.6250000e-01, 1.2900000e-03
5911, 7.5000000e-02, 2.6250000e-01, 1.2900000e-03
5912, 8.7500000e-02, 2.6250000e-01, 1.2900000e-03
5913, 1.0000000e-01, 2.6250000e-01, 1.2900000e-03
5914, 1.1250000e-01, 2.6250000e-01, 1.2900000e-03
5915, 1.2500000e-01, 2.6250000e-01, 1.2900000e-03
5916, 1.3750000e-01, 2.6250000e-01, 1.2900000e-03
5917, 1.5000000e-01, 2.6250000e-01, 1.2900000e-03
5918, 1.6250000e-01, 2.6250000e-01, 1.2900000e-03
5919, 1.7500000e-01, 2.6250000e-01, 1.2900000e-03
5920, 1.8750000e-01, 2.6250000e-01, 1.2900000e-03
5921, 2.0000000e-01, 2.6250000e-01, 1.2900000e-03
5922, 2.1250000e-01, 2.6250000e-01, 1.2900000e-03
5923, 2.2500000e-01, 2.6250000e-01, 1.2900000e-03
5924, 2.3750000e-01, 2.6250000e-01, 1.2900000e-03
5925, 2.5000000e-01, 2.6250000e-01, 1.2900000e-03
5926, 2.6250000e-01, 2.6250000e-01, 1.2900000e-03
5927, 2.7500000e-01, 2.6250000e-01, 1.2900000e-03
5928, 2.8750000e-01, 2.6250000e-01, 1.2900000e-03
5929, 3.0000000e-01, 2.6250000e-01, 1.2900000e-03
5930, 3.1250000e-01, 2.6250000e-01, 1.2900000e-03
5931, 3.2500000e-01, 2.6250000e-01, 1.2900000e-03
5932, 3.3750000e-01, 2.6250000e-01, 1.2900000e-03
5933, 3.5000000e-01, 2.6250000e-01, 1.2900000e-03
5934, 3.6250000e-01, 2.6250000e-01, 1.2900000e-03
5935, 3.7500000e-01, 2.6250000e-01, 1.2900000e-03
5936, 3.8750000e-01, 2.6250000e-01, 1.2900000e-03
5937, 4.0000000e-01, 2.6250000e-01, 1.2900000e-03
5938, 4.1250000e-01, 2.6250000e-01, 1.2900000e-03
5939, 4.2500000e-01, 2.6250000e-01, 1.2900000e-03
5940, 4.3750000e-01, 2.6250000e-01, 1.2900000e-03
5941, 4.5000000e-01, 2.6250000e-01, 1.2900000e-03
5942, 4.6250000e-01, 2.6250000e-01, 1.2900000e-03
5943, 4.7500000e-01, 2.6250000e-01, 1.2900000e-03
5944, 4.8750000e-01, 2.6250000e-01, 1.2900000e-03
5945, 5.0000000e-01, 2.6250000e-01, 1.2900000e-03
5946, 0.0000000e+00, 2.7500000e-01, 1.2900000e-03
5947, 1.2500000e-02, 2.7500000e-01, 1.2900000e-03
5948, 2.5000000e-02, 2.7500000e-01, 1.2900000e-03
5949, 3.7500000e-02, 2.7500000e-01, 1.2900000e-03
5950, 5.0000000e-02, 2.7500000e-01, 1.2900000e-03
5951, 6.2500000e-02, 2.7500000e-01, 1.2900000e-03
5952, 7.5000000e-02, 2.7500000e-01, 1.2900000e-03
5953, 8.7500000e-02, 2.7500000e-01, 1.2900000e-03
5954, 1.0000000e-01, 2.7500000e-01, 1.2900000e-03
5955, 1.1250000e-01, 2.7500000e-01, 1.2900000e-03
5956, 1.2500000e-01, 2.7500000e-01, 1.2900000e-03
5957, 1.3750000e-01, 2.7500000e-01, 1.2900000e-03
5958, 1.5000000e-01, 2.7500000e-01, 1.2900000e-03
5959, 1.6250000e-01, 2.7500000e-01, 1.2900000e-03
5960, 1.7500000e-01, 2.7500000e-01, 1.2900000e-03
5961, 1.8750000e-01, 2.7500000e-01, 1.2900000e-03
5962, 2.0000000e-01, 2.7500000e-01, 1.2900000e-03
5963, 2.1250000e-01, 2.7500000e-01, 1.2900000e-03
5964, 2.2500000e-01, 2.7500000e-01, 1.2900000e-03
5965, 2.3750000e-01, 2.7500000e-01, 1.2900000e-03
5966, 2.5000000e-01, 2.7500000e-01, 1.2900000e-03
5967, 2.6250000e-01, 2.7500000e-01, 1.2900000e-03
5968, 2.7500000e-01, 2.7500000e-01, 1.2900000e-03
5969, 2.8750000e-01, 2.7500000e-01, 1.2900000e-03
5970, 3.0000000e-01, 2.7500000e-01, 1.2900000e-03
5971, 3.1250000e-01, 2.7500000e-01, 1.2900000e-03
5972, 3.2500000e-01, 2.7500000e-01, 1.2900000e-03
5973, 3.3750000e-01, 2.7500000e-01, 1.2900000e-03
5974, 3.5000000e-01, 2.7500000e-01, 1.2900000e-03
5975, 3.6250000e-01, 2.7500000e-01, 1.2900000e-03
5976, 3.7500000e-01, 2.7500000e-01, 1.2900000e-03
5977, 3.8750000e-01, 2.7500000e-01, 1.2900000e-03
5978, 4.0000000e-01, 2.7500000e-01, 1.2900000e-03
5979, 4.1250000e-01, 2.7500000e-01, 1.2900000e-03
5980, 4.2500000e-01, 2.7500000e-01, 1.2900000e-03
5981, 4.3750000e-01, 2.7500000e-01, 1.2900000e-03
5982, 4.5000000e-01, 2.7500000e-01, 1.2900000e-03
5983, 4.6250000e-01, 2.7500000e-01, 1.2900000e-03
5984, 4.7500000e-01, 2.7500000e-01, 1.2900000e-03
5985, 4.8750000e-01, 2.7500000e-01, 1.2900000e-03
5986, 5.0000000e-01, 2.7500000e-01, 1.2900000e-03
5987, 0.0000000e+00, 2.8750000e-01, 1.2900000e-03
5988, 1.2500000e-02, 2.8750000e-01, 1.2900000e-03
5989, 2.5000000e-02, 2.8750000e-01, 1.2900000e-03
5990, 3.7500000e-02, 2.8750000e-01, 1.2900000e-03
5991, 5.0000000e-02, 2.8750000e-01, 1.2900000e-03
5992, 6.2500000e-02, 2.8750000e-01, 1.2900000e-03
5993, 7.5000000e-02, 2.8750000e-01, 1.2900000e-03
5994, 8.7500000e-02, 2.8750000e-01, 1.2900000e-03
5995, 1.0000000e-01, 2.8750000e-01, 1.2900000e-03
5996, 1.1250000e-01, 2.8750000e-01, 1.2900000e-03
5997, 1.2500000e-01, 2.8750000e-01, 1.2900000e-03
5998, 1.3750000e-01, 2.8750000e-01, 1.2900000e-03
5999, 1.5000000e-01, 2.8750000e-01, 1.2900000e-03
6000, 1.6250000e-01, 2.8750000e-01, 1.2900000e-03
6001, 1.7500000e-01, 2.8750000e-01, 1.2900000e-03
6002, 1.8750000e-01, 2.8750000e-01, 1.2900000e-03
6003, 2.0000000e-01, 2.8750000e-01, 1.2900000e-03
6004, 2.1250000e-01, 2.8750000e-01, 1.2900000e-03
6005, 2.2500000e-01, 2.8750000e-01, 1.2900000e-03
6006, 2.3750000e-01, 2.8750000e-01, 1.2900000e-03
6007, 2.5000000e-01, 2.8750000e-01, 1.2900000e-03
6008, 2.6250000e-01, 2.8750000e-01, 1.2900000e-03
6009, 2.7500000e-01, 2.8750000e-01, 1.2900000e-03
6010, 2.8750000e-01, 2.8750000e-01, 1.2900000e-03
6011, 3.0000000e-01, 2.8750000e-01, 1.2900000e-03
6012, 3.1250000e-01, 2.8750000e-01, 1.2900000e-03
6013, 3.2500000e-01, 2.8750000e-01, 1.2900000e-03
6014, 3.3750000e-01, 2.8750000e-01, 1.2900000e-03
6015, 3.5000000e-01, 2.8750000e-01, 1.2900000e-03
6016, 3.6250000e-01, 2.8750000e-01, 1.2900000e-03
6017, 3.7500000e-01, 2.8750000e-01, 1.2900000e-03
6018, 3.8750000e-01, 2.8750000e-01, 1.2900000e-03
6019, 4.0000000e-01, 2.8750000e-01, 1.2900000e-03
6020, 4.1250000e-01, 2.8750000e-01, 1.2900000e-03
6021, 4.2500000e-01, 2.8750000e-01, 1.2900000e-03
6022, 4.3750000e-01, 2.8750000e-01, 1.2900000e-03
6023, 4.5000000e-01, 2.8750000e-01, 1.2900000e-03
6024, 4.6250000e-01, 2.8750000e-01, 1.2900000e-03
6025, 4.7500000e-01, 2.8750000e-01, 1.2900000e-03
6026, 4.8750000e-01, 2.8750000e-01, 1.2900000e-03
6027, 5.0000000e-01, 2.8750000e-01, 1.2900000e-03
6028, 0.0000000e+00, 3.0000000e-01, 1.2900000e-03
6029, 1.2500000e-02, 3.0000000e-01, 1.2900000e-03
6030, 2.5000000e-02, 3.0000000e-01, 1.2900000e-03
6031, 3.7500000e-02, 3.0000000e-01, 1.2900000e-03
6032, 5.0000000e-02, 3.0000000e-01, 1.2900000e-03
6033, 6.2500000e-02, 3.0000000e-01, 1.2900000e-03
6034, 7.5000000e-02, 3.0000000e-01, 1.2900000e-03
6035, 8.7500000e-02, 3.0000000e-01, 1.2900000e-03
6036, 1.0000000e-01, 3.0000000e-01, 1.2900000e-03
6037, 1.1250000e-01, 3.0000000e-01, 1.2900000e-03
6038, 1.2500000e-01, 3.0000000e-01, 1.2900000e-03
6039, 1.3750000e-01, 3.0000000e-01, 1.2900000e-03
6040, 1.5000000e-01, 3.0000000e-01, 1.2900000e-03
6041, 1.6250000e-01, 3.0000000e-01, 1.2900000e-03
6042, 1.7500000e-01, 3.0000000e-01, 1.2900000e-03
6043, 1.8750000e-01, 3.0000000e-01, 1.2900000e-03
6044, 2.0000000e-01, 3.0000000e-01, 1.2900000e-03
6045, 2.1250000e-01, 3.0000000e-01, 1.2900000e-03
6046, 2.2500000e-01, 3.0000000e-01, 1.2900000e-03
6047, 2.3750000e-01, 3.0000000e-01, 1.2900000e-03
6048, 2.5000000e-01, 3.0000000e-01, 1.2900000e-03
6049, 2.6250000e-01, 3.0000000e-01, 1.2900000e-03
6050, 2.7500000e-01, 3.0000000e-01, 1.2900000e-03
6051, 2.8750000e-01, 3.0000000e-01, 1.2900000e-03
6052, 3.0000000e-01, 3.0000000e-01, 1.2900000e-03
6053, 3.1250000e-01, 3.0000000e-01, 1.2900000e-03
6054, 3.2500000e-01, 3.0000000e-01, 1.2900000e-03
6055, 3.3750000e-01, 3.0000000e-01, 1.2900000e-03
6056, 3.5000000e-01, 3.0000000e-01, 1.2900000e-03
6057, 3.6250000e-01, 3.0000000e-01, 1.2900000e-03
6058, 3.7500000e-01, 3.0000000e-01, 1.2900000e-03
6059, 3.8750000e-01, 3.0000000e-01, 1.2900000e-03
6060, 4.0000000e-01, 3.0000000e-01, 1.2900000e-03
6061, 4.1250000e-01, 3.0000000e-01, 1.2900000e-03
6062, 4.2500000e-01, 3.0000000e-01, 1.2900000e-03
6063, 4.3750000e-01, 3.0000000e-01, 1.2900000e-03
6064, 4.5000000e-01, 3.0000000e-01, 1.2900000e-03
6065, 4.6250000e-01, 3.0000000e-01, 1.2900000e-03
6066, 4.7500000e-01, 3.0000000e-01, 1.2900000e-03
6067, 4.8750000e-01, 3.0000000e-01, 1.2900000e-03
6068, 5.0000000e-01, 3.0000000e-01, 1.2900000e-03
6069, 0.0000000e+00, 3.1250000e-01, 1.2900000e-03
6070, 1.2500000e-02, 3.1250000e-01, 1.2900000e-03
6071, 2.5000000e-02, 3.1250000e-01, 1.2900000e-03
6072, 3.7500000e-02, 3.1250000e-01, 1.2900000e-03
6073, 5.0000000e-02, 3.1250000e-01, 1.2900000e-03
6074, 6.2500000e-02, 3.1250000e-01, 1.2900000e-03
6075, 7.5000000e-02, 3.1250000e-01, 1.2900000e-03
6076, 8.7500000e-02, 3.1250000e-01, 1.2900000e-03
6077, 1.0000000e-01, 3.1250000e-01, 1.2900000e-03
6078, 1.1250000e-01, 3.1250000e-01, 1.2900000e-03
6079, 1.2500000e-01, 3.1250000e-01, 1.2900000e-03
6080, 1.3750000e-01, 3.1250000e-01, 1.2900000e-03
6081, 1.5000000e-01, 3.1250000e-01, 1.2900000e-03
6082, 1.6250000e-01, 3.1250000e-01, 1.2900000e-03
6083, 1.7500000e-01, 3.1250000e-01, 1.2900000e-03
6084, 1.8750000e-01, 3.1250000e-01, 1.2900000e-03
6085, 2.0000000e-01, 3.1250000e-01, 1.2900000e-03
6086, 2.1250000e-01, 3.1250000e-01, 1.2900000e-03
6087, 2.2500000e-01, 3.1250000e-01, 1.2900000e-03
6088, 2.3750000e-01, 3.1250000e-01, 1.2900000e-03
6089, 2.5000000e-01, 3.1250000e-01, 1.2900000e-03
6090, 2.6250000e-01, 3.1250000e-01, 1.2900000e-03
6091, 2.7500000e-01, 3.1250000e-01, 1.2900000e-03
6092, 2.8750000e-01, 3.1250000e-01, 1.2900000e-03
6093, 3.0000000e-01, 3.1250000e-01, 1.2900000e-03
6094, 3.1250000e-01, 3.1250000e-01, 1.2900000e-03
6095, 3.2500000e-01, 3.1250000e-01, 1.2900000e-03
6096, 3.3750000e-01, 3.1250000e-01, 1.2900000e-03
6097, 3.5000000e-01, 3.1250000e-01, 1.2900000e-03
6098, 3.6250000e-01, 3.1250000e-01, 1.2900000e-03
6099, 3.7500000e-01, 3.1250000e-01, 1.2900000e-03
6100, 3.8750000e-01, 3.1250000e-01, 1.2900000e-03
6101, 4.0000000e-01, 3.1250000e-01, 1.2900000e-03
6102, 4.1250000e-01, 3.1250000e-01, 1.2900000e-03
6103, 4.2500000e-01, 3.1250000e-01, 1.2900000e-03
6104, 4.3750000e-01, 3.1250000e-01, 1.2900000e-03
6105, 4.5000000e-01, 3.1250000e-01, 1.2900000e-03
6106, 4.6250000e-01, 3.1250000e-01, 1.2900000e-03
6107, 4.7500000e-01, 3.1250000e-01, 1.2900000e-03
6108, 4.8750000e-01, 3.1250000e-01, 1.2900000e-03
6109, 5.0000000e-01, 3.1250000e-01, 1.2900000e-03
6110, 0.0000000e+00, 3.2500000e-01, 1.2900000e-03
6111, 1.2500000e-02, 3.2500000e-01, 1.2900000e-03
6112, 2.5000000e-02, 3.2500000e-01, 1.2900000e-03
6113, 3.7500000e-02, 3.2500000e-01, 1.2900000e-03
6114, 5.0000000e-02, 3.2500000e-01, 1.2900000e-03
6115, 6.2500000e-02, 3.2500000e-01, 1.2900000e-03
6116, 7.5000000e-02, 3.2500000e-01, 1.2900000e-03
6117, 8.7500000e-02, 3.2500000e-01, 1.2900000e-03
6118, 1.0000000e-01, 3.2500000e-01, 1.2900000e-03
6119, 1.1250000e-01, 3.2500000e-01, 1.2900000e-03
6120, 1.2500000e-01, 3.2500000e-01, 1.2900000e-03
6121, 1.3750000e-01, 3.2500000e-01, 1.2900000e-03
6122, 1.5000000e-01, 3.2500000e-01, 1.2900000e-03
6123, 1.6250000e-01, 3.2500000e-01, 1.2900000e-03
6124, 1.7500000e-01, 3.2500000e-01, 1.2900000e-03
6125, 1.8750000e-01, 3.2500000e-01, 1.2900000e-03
6126, 2.0000000e-01, 3.2500000e-01, 1.2900000e-03
6127, 2.1250000e-01, 3.2500000e-01, 1.2900000e-03
6128, 2.2500000e-01, 3.2500000e-01, 1.2900000e-03
6129, 2.3750000e-01, 3.2500000e-01, 1.2900000e-03
6130, 2.5000000e-01, 3.2500000e-01, 1.2900000e-03
6131, 2.6250000e-01, 3.2500000e-01, 1.2900000e-03
6132, 2.7500000e-01, 3.2500000e-01, 1.2900000e-03
6133, 2.8750000e-01, 3.2500000e-01, 1.2900000e-03
6134, 3.0000000e-01, 3.2500000e-01, 1.2900000e-03
6135, 3.1250000e-01, 3.2500000e-01, 1.2900000e-03
6136, 3.2500000e-01, 3.2500000e-01, 1.2900000e-03
6137, 3.3750000e-01, 3.2500000e-01, 1.2900000e-03
6138, 3.5000000e-01, 3.2500000e-01, 1.2900000e-03
6139, 3.6250000e-01, 3.2500000e-01, 1.2900000e-03
6140, 3.7500000e-01, 3.2500000e-01, 1.2900000e-03
6141, 3.8750000e-01, 3.2500000e-01, 1.2900000e-03
6142, 4.0000000e-01, 3.2500000e-01, 1.2900000e-03
6143, 4.1250000e-01, 3.2500000e-01, 1.2900000e-03
6144, 4.2500000e-01, 3.2500000e-01, 1.2900000e-03
6145, 4.3750000e-01, 3.2500000e-01, 1.2900000e-03
6146, 4.5000000e-01, 3.2500000e-01, 1.2900000e-03
6147, 4.6250000e-01, 3.2500000e-01, 1.2900000e-03
6148, 4.7500000e-01, 3.2500000e-01, 1.2900000e-03
6149, 4.8750000e-01, 3.2500000e-01, 1.2900000e-03
6150, 5.0000000e-01, 3.2500000e-01, 1.2900000e-03
6151, 0.0000000e+00, 3.3750000e-01, 1.2900000e-03
6152, 1.2500000e-02, 3.3750000e-01, 1.2900000e-03
6153, 2.5000000e-02, 3.3750000e-01, 1.2900000e-03
6154, 3.7500000e-02, 3.3750000e-01, 1.2900000e-03
6155, 5.0000000e-02, 3.3750000e-01, 1.2900000e-03
6156, 6.2500000e-02, 3.3750000e-01, 1.2900000e-03
6157, 7.5000000e-02, 3.3750000e-01, 1.2900000e-03
6158, 8.7500000e-02, 3.3750000e-01, 1.2900000e-03
6159, 1.0000000e-01, 3.3750000e-01, 1.2900000e-03
6160, 1.1250000e-01, 3.3750000e-01, 1.2900000e-03
6161, 1.2500000e-01, 3.3750000e-01, 1.2900000e-03
6162, 1.3750000e-01, 3.3750000e-01, 1.2900000e-03
6163, 1.5000000e-01, 3.3750000e-01, 1.2900000e-03
6164, 1.6250000e-01, 3.3750000e-01, 1.2900000e-03
6165, 1.7500000e-01, 3.3750000e-01, 1.2900000e-03
6166, 1.8750000e-01, 3.3750000e-01, 1.2900000e-03
6167, 2.0000000e-01, 3.3750000e-01, 1.2900000e-03
6168, 2.1250000e-01, 3.3750000e-01, 1.2900000e-03
6169, 2.2500000e-01, 3.3750000e-01, 1.2900000e-03
6170, 2.3750000e-01, 3.3750000e-01, 1.2900000e-03
6171, 2.5000000e-01, 3.3750000e-01, 1.2900000e-03
6172, 2.6250000e-01, 3.3750000e-01, 1.2900000e-03
6173, 2.7500000e-01, 3.3750000e-01, 1.2900000e-03
6174, 2.8750000e-01, 3.3750000e-01, 1.2900000e-03
6175, 3.0000000e-01, 3.3750000e-01, 1.2900000e-03
6176, 3.1250000e-01, 3.3750000e-01, 1.2900000e-03
6177, 3.2500000e-01, 3.3750000e-01, 1.2900000e-03
6178, 3.3750000e-01, 3.3750000e-01, 1.2900000e-03
6179, 3.5000000e-01, 3.3750000e-01, 1.2900000e-03
6180, 3.6250000e-01, 3.3750000e-01, 1.2900000e-03
6181, 3.7500000e-01, 3.3750000e-01, 1.2900000e-03
6182, 3.8750000e-01, 3.3750000e-01, 1.2900000e-03
6183, 4.0000000e-01, 3.3750000e-01, 1.2900000e-03
6184, 4.1250000e-01, 3.3750000e-01, 1.2900000e-03
6185, 4.2500000e-01, 3.3750000e-01, 1.2900000e-03
6186, 4.3750000e-01, 3.3750000e-01, 1.2900000e-03
6187, 4.5000000e-01, 3.3750000e-01, 1.2900000e-03
6188, 4.6250000e-01, 3.3750000e-01, 1.2900000e-03
6189, 4.7500000e-01, 3.3750000e-01, 1.2900000e-03
6190, 4.8750000e-01, 3.3750000e-01, 1.2900000e-03
6191, 5.0000000e-01, 3.3750000e-01, 1.2900000e-03
6192, 0.0000000e+00, 3.5000000e-01, 1.2900000e-03
6193, 1.2500000e-02, 3.5000000e-01, 1.2900000e-03
6194, 2.5000000e-02, 3.5000000e-01, 1.2900000e-03
6195, 3.7500000e-02, 3.5000000e-01, 1.2900000e-03
6196, 5.0000000e-02, 3.5000000e-01, 1.2900000e-03
6197, 6.2500000e-02, 3.5000000e-01, 1.2900000e-03
6198, 7.5000000e-02, 3.5000000e-01, 1.2900000e-03
6199, 8.7500000e-02, 3.5000000e-01, 1.2900000e-03
6200, 1.0000000e-01, 3.5000000e-01, 1.2900000e-03
6201, 1.1250000e-01, 3.5000000e-01, 1.2900000e-03
6202, 1.2500000e-01, 3.5000000e-01, 1.2900000e-03
6203, 1.3750000e-01, 3.5000000e-01, 1.2900000e-03
6204, 1.5000000e-01, 3.5000000e-01, 1.2900000e-03
6205, 1.6250000e-01, 3.5000000e-01, 1.2900000e-03
6206, 1.7500000e-01, 3.5000000e-01, 1.2900000e-03
6207, 1.8750000e-01, 3.5000000e-01, 1.2900000e-03
6208, 2.0000000e-01, 3.5000000e-01, 1.2900000e-03
6209, 2.1250000e-01, 3.5000000e-01, 1.2900000e-03
6210, 2.2500000e-01, 3.5000000e-01, 1.2900000e-03
6211, 2.3750000e-01, 3.5000000e-01, 1.2900000e-03
6212, 2.5000000e-01, 3.5000000e-01, 1.2900000e-03
6213, 2.6250000e-01, 3.5000000e-01, 1.2900000e-03
6214, 2.7500000e-01, 3.5000000e-01, 1.2900000e-03
6215, 2.8750000e-01, 3.5000000e-01, 1.2900000e-03
6216, 3.0000000e-01, 3.5000000e-01, 1.2900000e-03
6217, 3.1250000e-01, 3.5000000e-01, 1.2900000e-03
6218, 3.2500000e-01, 3.5000000e-01, 1.2900000e-03
6219, 3.3750000e-01, 3.5000000e-01, 1.2900000e-03
6220, 3.5000000e-01, 3.5000000e-01, 1.2900000e-03
6221, 3.6250000e-01, 3.5000000e-01, 1.2900000e-03
6222, 3.7500000e-01, 3.5000000e-01, 1.2900000e-03
6223, 3.8750000e-01, 3.5000000e-01, 1.2900000e-03
6224, 4.0000000e-01, 3.5000000e-01, 1.2900000e-03
6225, 4.1250000e-01, 3.5000000e-01, 1.2900000e-03
6226, 4.2500000e-01, 3.5000000e-01, 1.2900000e-03
6227, 4.3750000e-01, 3.5000000e-01, 1.2900000e-03
6228, 4.5000000e-01, 3.5000000e-01, 1.2900000e-03
6229, 4.6250000e-01, 3.5000000e-01, 1.2900000e-03
6230, 4.7500000e-01, 3.5000000e-01, 1.2900000e-03
6231, 4.8750000e-01, 3.5000000e-01, 1.2900000e-03
6232, 5.0000000e-01, 3.5000000e-01, 1.2900000e-03
6233, 0.0000000e+00, 3.6250000e-01, 1.2900000e-03
6234, 1.2500000e-02, 3.6250000e-01, 1.2900000e-03
6235, 2.5000000e-02, 3.6250000e-01, 1.2900000e-03
6236, 3.7500000e-02, 3.6250000e-01, 1.2900000e-03
6237, 5.0000000e-02, 3.6250000e-01, 1.2900000e-03
6238, 6.2500000e-02, 3.6250000e-01, 1.2900000e-03
6239, 7.5000000e-02, 3.6250000e-01, 1.2900000e-03
6240, 8.7500000e-02, 3.6250000e-01, 1.2900000e-03
6241, 1.0000000e-01, 3.6250000e-01, 1.2900000e-03
6242, 1.1250000e-01, 3.6250000e-01, 1.2900000e-03
6243, 1.2500000e-01, 3.6250000e-01, 1.2900000e-03
6244, 1.3750000e-01, 3.6250000e-01, 1.2900000e-03
6245, 1.5000000e-01, 3.6250000e-01, 1.2900000e-03
6246, 1.6250000e-01, 3.6250000e-01, 1.2900000e-03
6247, 1.7500000e-01, 3.6250000e-01, 1.2900000e-03
6248, 1.8750000e-01, 3.6250000e-01, 1.2900000e-03
6249, 2.0000000e-01, 3.6250000e-01, 1.2900000e-03
6250, 2.1250000e-01, 3.6250000e-01, 1.2900000e-03
6251, 2.2500000e-01, 3.6250000e-01, 1.2900000e-03
6252, 2.3750000e-01, 3.6250000e-01, 1.2900000e-03
6253, 2.5000000e-01, 3.6250000e-01, 1.2900000e-03
6254, 2.6250000e-01, 3.6250000e-01, 1.2900000e-03
6255, 2.7500000e-01, 3.6250000e-01, 1.2900000e-03
6256, 2.8750000e-01, 3.6250000e-01, 1.2900000e-03
6257, 3.0000000e-01, 3.6250000e-01, 1.2900000e-03
6258, 3.1250000e-01, 3.6250000e-01, 1.2900000e-03
6259, 3.2500000e-01, 3.6250000e-01, 1.2900000e-03
6260, 3.3750000e-01, 3.6250000e-01, 1.2900000e-03
6261, 3.5000000e-01, 3.6250000e-01, 1.2900000e-03
6262, 3.6250000e-01, 3.6250000e-01, 1.2900000e-03
6263, 3.7500000e-01, 3.6250000e-01, 1.2900000e-03
6264, 3.8750000e-01, 3.6250000e-01, 1.2900000e-03
6265, 4.0000000e-01, 3.6250000e-01, 1.2900000e-03
6266, 4.1250000e-01, 3.6250000e-01, 1.2900000e-03
6267, 4.2500000e-01, 3.6250000e-01, 1.2900000e-03
6268, 4.3750000e-01, 3.6250000e-01, 1.2900000e-03
6269, 4.5000000e-01, 3.6250000e-01, 1.2900000e-03
6270, 4.6250000e-01, 3.6250000e-01, 1.2900000e-03
6271, 4.7500000e-01, 3.6250000e-01, 1.2900000e-03
6272, 4.8750000e-01, 3.6250000e-01, 1.2900000e-03
6273, 5.0000000e-01, 3.6250000e-01, 1.2900000e-03
6274, 0.0000000e+00, 3.7500000e-01, 1.2900000e-03
6275, 1.2500000e-02, 3.7500000e-01, 1.2900000e-03
6276, 2.5000000e-02, 3.7500000e-01, 1.2900000e-03
6277, 3.7500000e-02, 3.7500000e-01, 1.2900000e-03
6278, 5.0000000e-02, 3.7500000e-01, 1.2900000e-03
6279, 6.2500000e-02, 3.7500000e-01, 1.2900000e-03
6280, 7.5000000e-02, 3.7500000e-01, 1.2900000e-03
6281, 8.7500000e-02, 3.7500000e-01, 1.2900000e-03
6282, 1.0000000e-01, 3.7500000e-01, 1.2900000e-03
6283, 1.1250000e-01, 3.7500000e-01, 1.2900000e-03
6284, 1.2500000e-01, 3.7500000e-01, 1.2900000e-03
6285, 1.3750000e-01, 3.7500000e-01, 1.2900000e-03
6286, 1.5000000e-01, 3.7500000e-01, 1.2900000e-03
6287, 1.6250000e-01, 3.7500000e-01, 1.2900000e-03
6288, 1.7500000e-01, 3.7500000e-01, 1.2900000e-03
6289, 1.8750000e-01, 3.7500000e-01, 1.2900000e-03
6290, 2.0000000e-01, 3.7500000e-01, 1.2900000e-03
6291, 2.1250000e-01, 3.7500000e-01, 1.2900000e-03
6292, 2.2500000e-01, 3.7500000e-01, 1.2900000e-03
6293, 2.3750000e-01, 3.7500000e-01, 1.2900000e-03
6294, 2.5000000e-01, 3.7500000e-01, 1.2900000e-03
6295, 2.6250000e-01, 3.7500000e-01, 1.2900000e-03
6296, 2.7500000e-01, 3.7500000e-01, 1.2900000e-03
6297, 2.8750000e-01, 3.7500000e-01, 1.2900000e-03
6298, 3.0000000e-01, 3.7500000e-01, 1.2900000e-03
6299, 3.1250000e-01, 3.7500000e-01, 1.2900000e-03
6300, 3.2500000e-01, 3.7500000e-01, 1.2900000e-03
6301, 3.3750000e-01, 3.7500000e-01, 1.2900000e-03
6302, 3.5000000e-01, 3.7500000e-01, 1.2900000e-03
6303, 3.6250000e-01, 3.7500000e-01, 1.2900000e-03
6304, 3.7500000e-01, 3.7500000e-01, 1.2900000e-03
6305, 3.8750000e-01, 3.7500000e-01, 1.2900000e-03
6306, 4.0000000e-01, 3.7500000e-01, 1.2900000e-03
6307, 4.1250000e-01, 3.7500000e-01, 1.2900000e-03
6308, 4.2500000e-01, 3.7500000e-01, 1.2900000e-03
6309, 4.3750000e-01, 3.7500000e-01, 1.2900000e-03
6310, 4.5000000e-01, 3.7500000e-01, 1.2900000e-03
6311, 4.6250000e-01, 3.7500000e-01, 1.2900000e-03
6312, 4.7500000e-01, 3.7500000e-01, 1.2900000e-03
6313, 4.8750000e-01, 3.7500000e-01, 1.2900000e-03
6314, 5.0000000e-01, 3.7500000e-01, 1.2900000e-03
6315, 0.0000000e+00, 3.8750000e-01, 1.2900000e-03
6316, 1.2500000e-02, 3.8750000e-01, 1.2900000e-03
6317, 2.5000000e-02, 3.8750000e-01, 1.2900000e-03
6318, 3.7500000e-02, 3.8750000e-01, 1.2900000e-03
6319, 5.0000000e-02, 3.8750000e-01, 1.2900000e-03
6320, 6.2500000e-02, 3.8750000e-01, 1.2900000e-03
6321, 7.5000000e-02, 3.8750000e-01, 1.2900000e-03
6322, 8.7500000e-02, 3.8750000e-01, 1.2900000e-03
6323, 1.0000000e-01, 3.8750000e-01, 1.2900000e-03
6324, 1.1250000e-01, 3.8750000e-01, 1.2900000e-03
6325, 1.2500000e-01, 3.8750000e-01, 1.2900000e-03
6326, 1.3750000e-01, 3.8750000e-01, 1.2900000e-03
6327, 1.5000000e-01, 3.8750000e-01, 1.2900000e-03
6328, 1.6250000e-01, 3.8750000e-01, 1.2900000e-03
6329, 1.7500000e-01, 3.8750000e-01, 1.2900000e-03
6330, 1.8750000e-01, 3.8750000e-01, 1.2900000e-03
6331, 2.0000000e-01, 3.8750000e-01, 1.2900000e-03
6332, 2.1250000e-01, 3.8750000e-01, 1.2900000e-03
6333, 2.2500000e-01, 3.8750000e-01, 1.2900000e-03
6334, 2.3750000e-01, 3.8750000e-01, 1.2900000e-03
6335, 2.5000000e-01, 3.8750000e-01, 1.2900000e-03
6336, 2.6250000e-01, 3.8750000e-01, 1.2900000e-03
6337, 2.7500000e-01, 3.8750000e-01, 1.2900000e-03
6338, 2.8750000e-01, 3.8750000e-01, 1.2900000e-03
6339, 3.0000000e-01, 3.8750000e-01, 1.2900000e-03
6340, 3.1250000e-01, 3.8750000e-01, 1.2900000e-03
6341, 3.2500000e-01, 3.8750000e-01, 1.2900000e-03
6342, 3.3750000e-01, 3.8750000e-01, 1.2900000e-03
6343, 3.5000000e-01, 3.8750000e-01, 1.2900000e-03
6344, 3.6250000e-01, 3.8750000e-01, 1.2900000e-03
6345, 3.7500000e-01, 3.8750000e-01, 1.2900000e-03
6346, 3.8750000e-01, 3.8750000e-01, 1.2900000e-03
6347, 4.0000000e-01, 3.8750000e-01, 1.2900000e-03
6348, 4.1250000e-01, 3.8750000e-01, 1.2900000e-03
6349, 4.2500000e-01, 3.8750000e-01, 1.2900000e-03
6350, 4.3750000e-01, 3.8750000e-01, 1.2900000e-03
6351, 4.5000000e-01, 3.8750000e-01, 1.2900000e-03
6352, 4.6250000e-01, 3.8750000e-01, 1.2900000e-03
6353, 4.7500000e-01, 3.8750000e-01, 1.2900000e-03
6354, 4.8750000e-01, 3.8750000e-01, 1.2900000e-03
6355, 5.0000000e-01, 3.8750000e-01, 1.2900000e-03
6356, 0.0000000e+00, 4.0000000e-01, 1.2900000e-03
6357, 1.2500000e-02, 4.0000000e-01, 1.2900000e-03
6358, 2.5000000e-02, 4.0000000e-01, 1.2900000e-03
6359, 3.7500000e-02, 4.0000000e-01, 1.2900000e-03
6360, 5.0000000e-02, 4.0000000e-01, 1.2900000e-03
6361, 6.2500000e-02, 4.0000000e-01, 1.2900000e-03
6362, 7.5000000e-02, 4.0000000e-01, 1.2900000e-03
6363, 8.7500000e-02, 4.0000000e-01, 1.2900000e-03
6364, 1.0000000e-01, 4.0000000e-01, 1.2900000e-03
6365, 1.1250000e-01, 4.0000000e-01, 1.2900000e-03
6366, 1.2500000e-01, 4.0000000e-01, 1.2900000e-03
6367, 1.3750000e-01, 4.0000000e-01, 1.2900000e-03
6368, 1.5000000e-01, 4.0000000e-01, 1.2900000e-03
6369, 1.6250000e-01, 4.0000000e-01, 1.2900000e-03
6370, 1.7500000e-01, 4.0000000e-01, 1.2900000e-03
6371, 1.8750000e-01, 4.0000000e-01, 1.2900000e-03
6372, 2.0000000e-01, 4.0000000e-01, 1.2900000e-03
6373, 2.1250000e-01, 4.0000000e-01, 1.2900000e-03
6374, 2.2500000e-01, 4.0000000e-01, 1.2900000e-03
6375, 2.3750000e-01, 4.0000000e-01, 1.2900000e-03
6376, 2.5000000e-01, 4.0000000e-01, 1.2900000e-03
6377, 2.6250000e-01, 4.0000000e-01, 1.2900000e-03
6378, 2.7500000e-01, 4.0000000e-01, 1.2900000e-03
6379, 2.8750000e-01, 4.0000000e-01, 1.2900000e-03
6380, 3.0000000e-01, 4.0000000e-01, 1.2900000e-03
6381, 3.1250000e-01, 4.0000000e-01, 1.2900000e-03
6382, 3.2500000e-01, 4.0000000e-01, 1.2900000e-03
6383, 3.3750000e-01, 4.0000000e-01, 1.2900000e-03
6384, 3.5000000e-01, 4.0000000e-01, 1.2900000e-03
6385, 3.6250000e-01, 4.0000000e-01, 1.2900000e-03
6386, 3.7500000e-01, 4.0000000e-01, 1.2900000e-03
6387, 3.8750000e-01, 4.0000000e-01, 1.2900000e-03
6388, 4.0000000e-01, 4.0000000e-01, 1.2900000e-03
6389, 4.1250000e-01, 4.0000000e-01, 1.2900000e-03
6390, 4.2500000e-01, 4.0000000e-01, 1.2900000e-03
6391, 4.3750000e-01, 4.0000000e-01, 1.2900000e-03
6392, 4.5000000e-01, 4.0000000e-01, 1.2900000e-03
6393, 4.6250000e-01, 4.0000000e-01, 1.2900000e-03
6394, 4.7500000e-01, 4.0000000e-01, 1.2900000e-03
6395, 4.8750000e-01, 4.0000000e-01, 1.2900000e-03
6396, 5.0000000e-01, 4.0000000e-01, 1.2900000e-03
6397, 0.0000000e+00, 4.1250000e-01, 1.2900000e-03
6398, 1.2500000e-02, 4.1250000e-01, 1.2900000e-03
6399, 2.5000000e-02, 4.1250000e-01, 1.2900000e-03
6400, 3.7500000e-02, 4.1250000e-01, 1.2900000e-03
6401, 5.0000000e-02, 4.1250000e-01, 1.2900000e-03
6402, 6.2500000e-02, 4.1250000e-01, 1.2900000e-03
6403, 7.5000000e-02, 4.1250000e-01, 1.2900000e-03
6404, 8.7500000e-02, 4.1250000e-01, 1.2900000e-03
6405, 1.0000000e-01, 4.1250000e-01, 1.2900000e-03
6406, 1.1250000e-01, 4.1250000e-01, 1.2900000e-03
6407, 1.2500000e-01, 4.1250000e-01, 1.2900000e-03
6408, 1.3750000e-01, 4.1250000e-01, 1.2900000e-03
6409, 1.5000000e-01, 4.1250000e-01, 1.2900000e-03
6410, 1.6250000e-01, 4.1250000e-01, 1.2900000e-03
6411, 1.7500000e-01, 4.1250000e-01, 1.2900000e-03
6412, 1.8750000e-01, 4.1250000e-01, 1.2900000e-03
6413, 2.0000000e-01, 4.1250000e-01, 1.2900000e-03
6414, 2.1250000e-01, 4.1250000e-01, 1.2900000e-03
6415, 2.2500000e-01, 4.1250000e-01, 1.2900000e-03
6416, 2.3750000e-01, 4.1250000e-01, 1.2900000e-03
6417, 2.5000000e-01, 4.1250000e-01, 1.2900000e-03
6418, 2.6250000e-01, 4.1250000e-01, 1.2900000e-03
6419, 2.7500000e-01, 4.1250000e-01, 1.2900000e-03
6420, 2.8750000e-01, 4.1250000e-01, 1.2900000e-03
6421, 3.0000000e-01, 4.1250000e-01, 1.2900000e-03
6422, 3.1250000e-01, 4.1250000e-01, 1.2900000e-03
6423, 3.2500000e-01, 4.1250000e-01, 1.2900000e-03
6424, 3.3750000e-01, 4.1250000e-01, 1.2900000e-03
6425, 3.5000000e-01, 4.1250000e-01, 1.2900000e-03
6426, 3.6250000e-01, 4.1250000e-01, 1.2900000e-03
6427, 3.7500000e-01, 4.1250000e-01, 1.2900000e-03
6428, 3.8750000e-01, 4.1250000e-01, 1.2900000e-03
6429, 4.0000000e-01, 4.1250000e-01, 1.2900000e-03
6430, 4.1250000e-01, 4.1250000e-01, 1.2900000e-03
6431, 4.2500000e-01, 4.1250000e-01, 1.2900000e-03
6432, 4.3750000e-01, 4.1250000e-01, 1.2900000e-03
6433, 4.5000000e-01, 4.1250000e-01, 1.2900000e-03
6434, 4.6250000e-01, 4.1250000e-01, 1.2900000e-03
6435, 4.7500000e-01, 4.1250000e-01, 1.2900000e-03
6436, 4.8750000e-01, 4.1250000e-01, 1.2900000e-03
6437, 5.0000000e-01, 4.1250000e-01, 1.2900000e-03
6438, 0.0000000e+00, 4.2500000e-01, 1.2900000e-03
6439, 1.2500000e-02, 4.2500000e-01, 1.2900000e-03
6440, 2.5000000e-02, 4.2500000e-01, 1.2900000e-03
6441, 3.7500000e-02, 4.2500000e-01, 1.2900000e-03
6442, 5.0000000e-02, 4.2500000e-01, 1.2900000e-03
6443, 6.2500000e-02, 4.2500000e-01, 1.2900000e-03
6444, 7.5000000e-02, 4.2500000e-01, 1.2900000e-03
6445, 8.7500000e-02, 4.2500000e-01, 1.2900000e-03
6446, 1.0000000e-01, 4.2500000e-01, 1.2900000e-03
6447, 1.1250000e-01, 4.2500000e-01, 1.2900000e-03
6448, 1.2500000e-01, 4.2500000e-01, 1.2900000e-03
6449, 1.3750000e-01, 4.2500000e-01, 1.2900000e-03
6450, 1.5000000e-01, 4.2500000e-01, 1.2900000e-03
6451, 1.6250000e-01, 4.2500000e-01, 1.2900000e-03
6452, 1.7500000e-01, 4.2500000e-01, 1.2900000e-03
6453, 1.8750000e-01, 4.2500000e-01, 1.2900000e-03
6454, 2.0000000e-01, 4.2500000e-01, 1.2900000e-03
6455, 2.1250000e-01, 4.2500000e-01, 1.2900000e-03
6456, 2.2500000e-01, 4.2500000e-01, 1.2900000e-03
6457, 2.3750000e-01, 4.2500000e-01, 1.2900000e-03
6458, 2.5000000e-01, 4.2500000e-01, 1.2900000e-03
6459, 2.6250000e-01, 4.2500000e-01, 1.2900000e-03
6460, 2.7500000e-01, 4.2500000e-01, 1.2900000e-03
6461, 2.8750000e-01, 4.2500000e-01, 1.2900000e-03
6462, 3.0000000e-01, 4.2500000e-01, 1.2900000e-03
6463, 3.1250000e-01, 4.2500000e-01, 1.2900000e-03
6464, 3.2500000e-01, 4.2500000e-01, 1.2900000e-03
6465, 3.3750000e-01, 4.2500000e-01, 1.2900000e-03
6466, 3.5000000e-01, 4.2500000e-01, 1.2900000e-03
6467, 3.6250000e-01, 4.2500000e-01, 1.2900000e-03
6468, 3.7500000e-01, 4.2500000e-01, 1.2900000e-03
6469, 3.8750000e-01, 4.2500000e-01, 1.2900000e-03
6470, 4.0000000e-01, 4.2500000e-01, 1.2900000e-03
6471, 4.1250000e-01, 4.2500000e-01, 1.2900000e-03
6472, 4.2500000e-01, 4.2500000e-01, 1.2900000e-03
6473, 4.3750000e-01, 4.2500000e-01, 1.2900000e-03
6474, 4.5000000e-01, 4.2500000e-01, 1.2900000e-03
6475, 4.6250000e-01, 4.2500000e-01, 1.2900000e-03
6476, 4.7500000e-01, 4.2500000e-01, 1.2900000e-03
6477, 4.8750000e-01, 4.2500000e-01, 1.2900000e-03
6478, 5.0000000e-01, 4.2500000e-01, 1.2900000e-03
6479, 0.0000000e+00, 4.3750000e-01, 1.2900000e-03
6480, 1.2500000e-02, 4.3750000e-01, 1.2900000e-03
6481, 2.5000000e-02, 4.3750000e-01, 1.2900000e-03
6482, 3.7500000e-02, 4.3750000e-01, 1.2900000e-03
6483, 5.0000000e-02, 4.3750000e-01, 1.2900000e-03
6484, 6.2500000e-02, 4.3750000e-01, 1.2900000e-03
6485, 7.5000000e-02, 4.3750000e-01, 1.2900000e-03
6486, 8.7500000e-02, 4.3750000e-01, 1.2900000e-03
6487, 1.0000000e-01, 4.3750000e-01, 1.2900000e-03
6488, 1.1250000e-01, 4.3750000e-01, 1.2900000e-03
6489, 1.2500000e-01, 4.3750000e-01, 1.2900000e-03
6490, 1.3750000e-01, 4.3750000e-01, 1.2900000e-03
6491, 1.5000000e-01, 4.3750000e-01, 1.2900000e-03
6492, 1.6250000e-01, 4.3750000e-01, 1.2900000e-03
6493, 1.7500000e-01, 4.3750000e-01, 1.2900000e-03
6494, 1.8750000e-01, 4.3750000e-01, 1.2900000e-03
6495, 2.0000000e-01, 4.3750000e-01, 1.2900000e-03
6496, 2.1250000e-01, 4.3750000e-01, 1.2900000e-03
6497, 2.2500000e-01, 4.3750000e-01, 1.2900000e-03
6498, 2.3750000e-01, 4.3750000e-01, 1.2900000e-03
6499, 2.5000000e-01, 4.3750000e-01, 1.2900000e-03
6500, 2.6250000e-01, 4.3750000e-01, 1.2900000e-03
6501, 2.7500000e-01, 4.3750000e-01, 1.2900000e-03
6502, 2.8750000e-01, 4.3750000e-01, 1.2900000e-03
6503, 3.0000000e-01, 4.3750000e-01, 1.2900000e-03
6504, 3.1250000e-01, 4.3750000e-01, 1.2900000e-03
6505, 3.2500000e-01, 4.3750000e-01, 1.2900000e-03
6506, 3.3750000e-01, 4.3750000e-01, 1.2900000e-03
6507, 3.5000000e-01, 4.3750000e-01, 1.2900000e-03
6508, 3.6250000e-01, 4.3750000e-01, 1.2900000e-03
6509, 3.7500000e-01, 4.3750000e-01, 1.2900000e-03
6510, 3.8750000e-01, 4.3750000e-01, 1.2900000e-03
6511, 4.0000000e-01, 4.3750000e-01, 1.2900000e-03
6512, 4.1250000e-01, 4.3750000e-01, 1.2900000e-03
6513, 4.2500000e-01, 4.3750000e-01, 1.2900000e-03
6514, 4.3750000e-01, 4.3750000e-01, 1.2900000e-03
6515, 4.5000000e-01, 4.3750000e-01, 1.2900000e-03
6516, 4.6250000e-01, 4.3750000e-01, 1.2900000e-03
6517, 4.7500000e-01, 4.3750000e-01, 1.2900000e-03
6518, 4.8750000e-01, 4.3750000e-01, 1.2900000e-03
6519, 5.0000000e-01, 4.3750000e-01, 1.2900000e-03
6520, 0.0000000e+00, 4.5000000e-01, 1.2900000e-03
6521, 1.2500000e-02, 4.5000000e-01, 1.2900000e-03
6522, 2.5000000e-02, 4.5000000e-01, 1.2900000e-03
6523, 3.7500000e-02, 4.5000000e-01, 1.2900000e-03
6524, 5.0000000e-02, 4.5000000e-01, 1.2900000e-03
6525, 6.2500000e-02, 4.5000000e-01, 1.2900000e-03
6526, 7.5000000e-02, 4.5000000e-01, 1.2900000e-03
6527, 8.7500000e-02, 4.5000000e-01, 1.2900000e-03
6528, 1.0000000e-01, 4.5000000e-01, 1.2900000e-03
6529, 1.1250000e-01, 4.5000000e-01, 1.2900000e-03
6530, 1.2500000e-01, 4.5000000e-01, 1.2900000e-03
6531, 1.3750000e-01, 4.5000000e-01, 1.2900000e-03
6532, 1.5000000e-01, 4.5000000e-01, 1.2900000e-03
6533, 1.6250000e-01, 4.5000000e-01, 1.2900000e-03
6534, 1.7500000e-01, 4.5000000e-01, 1.2900000e-03
6535, 1.8750000e-01, 4.5000000e-01, 1.2900000e-03
6536, 2.0000000e-01, 4.5000000e-01, 1.2900000e-03
6537, 2.1250000e-01, 4.5000000e-01, 1.2900000e-03
6538, 2.2500000e-01, 4.5000000e-01, 1.2900000e-03
6539, 2.3750000e-01, 4.5000000e-01, 1.2900000e-03
6540, 2.5000000e-01, 4.5000000e-01, 1.2900000e-03
6541, 2.6250000e-01, 4.5000000e-01, 1.2900000e-03
6542, 2.7500000e-01, 4.5000000e-01, 1.2900000e-03
6543, 2.8750000e-01, 4.5000000e-01, 1.2900000e-03
6544, 3.0000000e-01, 4.5000000e-01, 1.2900000e-03
6545, 3.1250000e-01, 4.5000000e-01, 1.2900000e-03
6546, 3.2500000e-01, 4.5000000e-01, 1.2900000e-03
6547, 3.3750000e-01, 4.5000000e-01, 1.2900000e-03
6548, 3.5000000e-01, 4.5000000e-01, 1.2900000e-03
6549, 3.6250000e-01, 4.5000000e-01, 1.2900000e-03
6550, 3.7500000e-01, 4.5000000e-01, 1.2900000e-03
6551, 3.8750000e-01, 4.5000000e-01, 1.2900000e-03
6552, 4.0000000e-01, 4.5000000e-01, 1.2900000e-03
6553, 4.1250000e-01, 4.5000000e-01, 1.2900000e-03
6554, 4.2500000e-01, 4.5000000e-01, 1.2900000e-03
6555, 4.3750000e-01, 4.5000000e-01, 1.2900000e-03
6556, 4.5000000e-01, 4.5000000e-01, 1.2900000e-03
6557, 4.6250000e-01, 4.5000000e-01, 1.2900000e-03
6558, 4.7500000e-01, 4.5000000e-01, 1.2900000e-03
6559, 4.8750000e-01, 4.5000000e-01, 1.2900000e-03
6560, 5.0000000e-01, 4.5000000e-01, 1.2900000e-03
6561, 0.0000000e+00, 4.6250000e-01, 1.2900000e-03
6562, 1.2500000e-02, 4.6250000e-01, 1.2900000e-03
6563, 2.5000000e-02, 4.6250000e-01, 1.2900000e-03
6564, 3.7500000e-02, 4.6250000e-01, 1.2900000e-03
6565, 5.0000000e-02, 4.6250000e-01, 1.2900000e-03
6566, 6.2500000e-02, 4.6250000e-01, 1.2900000e-03
6567, 7.5000000e-02, 4.6250000e-01, 1.2900000e-03
6568, 8.7500000e-02, 4.6250000e-01, 1.2900000e-03
6569, 1.0000000e-01, 4.6250000e-01, 1.2900000e-03
6570, 1.1250000e-01, 4.6250000e-01, 1.2900000e-03
6571, 1.2500000e-01, 4.6250000e-01, 1.2900000e-03
6572, 1.3750000e-01, 4.6250000e-01, 1.2900000e-03
6573, 1.5000000e-01, 4.6250000e-01, 1.2900000e-03
6574, 1.6250000e-01, 4.6250000e-01, 1.2900000e-03
6575, 1.7500000e-01, 4.6250000e-01, 1.2900000e-03
6576, 1.8750000e-01, 4.6250000e-01, 1.2900000e-03
6577, 2.0000000e-01, 4.6250000e-01, 1.2900000e-03
6578, 2.1250000e-01, 4.6250000e-01, 1.2900000e-03
6579, 2.2500000e-01, 4.6250000e-01, 1.2900000e-03
6580, 2.3750000e-01, 4.6250000e-01, 1.2900000e-03
6581, 2.5000000e-01, 4.6250000e-01, 1.2900000e-03
6582, 2.6250000e-01, 4.6250000e-01, 1.2900000e-03
6583, 2.7500000e-01, 4.6250000e-01, 1.2900000e-03
6584, 2.8750000e-01, 4.6250000e-01, 1.2900000e-03
6585, 3.0000000e-01, 4.6250000e-01, 1.2900000e-03
6586, 3.1250000e-01, 4.6250000e-01, 1.2900000e-03
6587, 3.2500000e-01, 4.6250000e-01, 1.2900000e-03
6588, 3.3750000e-01, 4.6250000e-01, 1.2900000e-03
6589, 3.5000000e-01, 4.6250000e-01, 1.2900000e-03
6590, 3.6250000e-01, 4.6250000e-01, 1.2900000e-03
6591, 3.7500000e-01, 4.6250000e-01, 1.2900000e-03
6592, 3.8750000e-01, 4.6250000e-01, 1.2900000e-03
6593, 4.0000000e-01, 4.6250000e-01, 1.2900000e-03
6594, 4.1250000e-01, 4.6250000e-01, 1.2900000e-03
6595, 4.2500000e-01, 4.6250000e-01, 1.2900000e-03
6596, 4.3750000e-01, 4.6250000e-01, 1.2900000e-03
6597, 4.5000000e-01, 4.6250000e-01, 1.2900000e-03
6598, 4.6250000e-01, 4.6250000e-01, 1.2900000e-03
6599, 4.7500000e-01, 4.6250000e-01, 1.2900000e-03
6600, 4.8750000e-01, 4.6250000e-01, 1.2900000e-03
6601, 5.0000000e-01, 4.6250000e-01, 1.2900000e-03
6602, 0.0000000e+00, 4.7500000e-01, 1.2900000e-03
6603, 1.2500000e-02, 4.7500000e-01, 1.2900000e-03
6604, 2.5000000e-02, 4.7500000e-01, 1.2900000e-03
6605, 3.7500000e-02, 4.7500000e-01, 1.2900000e-03
6606, 5.0000000e-02, 4.7500000e-01, 1.2900000e-03
6607, 6.2500000e-02, 4.7500000e-01, 1.2900000e-03
6608, 7.5000000e-02, 4.7500000e-01, 1.2900000e-03
6609, 8.7500000e-02, 4.7500000e-01, 1.2900000e-03
6610, 1.0000000e-01, 4.7500000e-01, 1.2900000e-03
6611, 1.1250000e-01, 4.7500000e-01, 1.2900000e-03
6612, 1.2500000e-01, 4.7500000e-01, 1.2900000e-03
6613, 1.3750000e-01, 4.7500000e-01, 1.2900000e-03
6614, 1.5000000e-01, 4.7500000e-01, 1.2900000e-03
6615, 1.6250000e-01, 4.7500000e-01, 1.2900000e-03
6616, 1.7500000e-01, 4.7500000e-01, 1.2900000e-03
6617, 1.8750000e-01, 4.7500000e-01, 1.2900000e-03
6618, 2.0000000e-01, 4.7500000e-01, 1.2900000e-03
6619, 2.1250000e-01, 4.7500000e-01, 1.2900000e-03
6620, 2.2500000e-01, 4.7500000e-01, 1.2900000e-03
6621, 2.3750000e-01, 4.7500000e-01, 1.2900000e-03
6622, 2.5000000e-01, 4.7500000e-01, 1.2900000e-03
6623, 2.6250000e-01, 4.7500000e-01, 1.2900000e-03
6624, 2.7500000e-01, 4.7500000e-01, 1.2900000e-03
6625, 2.8750000e-01, 4.7500000e-01, 1.2900000e-03
6626, 3.0000000e-01, 4.7500000e-01, 1.2900000e-03
6627, 3.1250000e-01, 4.7500000e-01, 1.2900000e-03
6628, 3.2500000e-01, 4.7500000e-01, 1.2900000e-03
6629, 3.3750000e-01, 4.7500000e-01, 1.2900000e-03
6630, 3.5000000e-01, 4.7500000e-01, 1.2900000e-03
6631, 3.6250000e-01, 4.7500000e-01, 1.2900000e-03
6632, 3.7500000e-01, 4.7500000e-01, 1.2900000e-03
6633, 3.8750000e-01, 4.7500000e-01, 1.2900000e-03
6634, 4.0000000e-01, 4.7500000e-01, 1.2900000e-03
6635, 4.1250000e-01, 4.7500000e-01, 1.2900000e-03
6636, 4.2500000e-01, 4.7500000e-01, 1.2900000e-03
6637, 4.3750000e-01, 4.7500000e-01, 1.2900000e-03
6638, 4.5000000e-01, 4.7500000e-01, 1.2900000e-03
6639, 4.6250000e-01, 4.7500000e-01, 1.2900000e-03
6640, 4.7500000e-01, 4.7500000e-01, 1.2900000e-03
6641, 4.8750000e-01, 4.7500000e-01, 1.2900000e-03
6642, 5.0000000e-01, 4.7500000e-01, 1.2900000e-03
6643, 0.0000000e+00, 4.8750000e-01, 1.2900000e-03
6644, 1.2500000e-02, 4.8750000e-01, 1.2900000e-03
6645, 2.5000000e-02, 4.8750000e-01, 1.2900000e-03
6646, 3.7500000e-02, 4.8750000e-01, 1.2900000e-03
6647, 5.0000000e-02, 4.8750000e-01, 1.2900000e-03
6648, 6.2500000e-02, 4.8750000e-01, 1.2900000e-03
6649, 7.5000000e-02, 4.8750000e-01, 1.2900000e-03
6650, 8.7500000e-02, 4.8750000e-01, 1.2900000e-03
6651, 1.0000000e-01, 4.8750000e-01, 1.2900000e-03
6652, 1.1250000e-01, 4.8750000e-01, 1.2900000e-03
6653, 1.2500000e-01, 4.8750000e-01, 1.2900000e-03
6654, 1.3750000e-01, 4.8750000e-01, 1.2900000e-03
6655, 1.5000000e-01, 4.8750000e-01, 1.2900000e-03
6656, 1.6250000e-01, 4.8750000e-01, 1.2900000e-03
6657, 1.7500000e-01, 4.8750000e-01, 1.2900000e-03
6658, 1.8750000e-01, 4.8750000e-01, 1.2900000e-03
6659, 2.0000000e-01, 4.8750000e-01, 1.2900000e-03
6660, 2.1250000e-01, 4.8750000e-01, 1.2900000e-03
6661, 2.2500000e-01, 4.8750000e-01, 1.2900000e-03
6662, 2.3750000e-01, 4.8750000e-01, 1.2900000e-03
6663, 2.5000000e-01, 4.8750000e-01, 1.2900000e-03
6664, 2.6250000e-01, 4.8750000e-01, 1.2900000e-03
6665, 2.7500000e-01, 4.8750000e-01, 1.2900000e-03
6666, 2.8750000e-01, 4.8750000e-01, 1.2900000e-03
6667, 3.0000000e-01, 4.8750000e-01, 1.2900000e-03
6668, 3.1250000e-01, 4.8750000e-01, 1.2900000e-03
6669, 3.2500000e-01, 4.8750000e-01, 1.2900000e-03
6670, 3.3750000e-01, 4.8750000e-01, 1.2900000e-03
6671, 3.5000000e-01, 4.8750000e-01, 1.2900000e-03
6672, 3.6250000e-01, 4.8750000e-01, 1.2900000e-03
6673, 3.7500000e-01, 4.8750000e-01, 1.2900000e-03
6674, 3.8750000e-01, 4.8750000e-01, 1.2900000e-03
6675, 4.0000000e-01, 4.8750000e-01, 1.2900000e-03
6676, 4.1250000e-01, 4.8750000e-01, 1.2900000e-03
6677, 4.2500000e-01, 4.8750000e-01, 1.2900000e-03
6678, 4.3750000e-01, 4.8750000e-01, 1.2900000e-03
6679, 4.5000000e-01, 4.8750000e-01, 1.2900000e-03
6680, 4.6250000e-01, 4.8750000e-01, 1.2900000e-03
6681, 4.7500000e-01, 4.8750000e-01, 1.2900000e-03
6682, 4.8750000e-01, 4.8750000e-01, 1.2900000e-03
6683, 5.0000000e-01, 4.8750000e-01, 1.2900000e-03
6684, 0.0000000e+00, 5.0000000e-01, 1.2900000e-03
6685, 1.2500000e-02, 5.0000000e-01, 1.2900000e-03
6686, 2.5000000e-02, 5.0000000e-01, 1.2900000e-03
6687, 3.7500000e-02, 5.0000000e-01, 1.2900000e-03
6688, 5.0000000e-02, 5.0000000e-01, 1.2900000e-03
6689, 6.2500000e-02, 5.0000000e-01, 1.2900000e-03
6690, 7.5000000e-02, 5.0000000e-01, 1.2900000e-03
6691, 8.7500000e-02, 5.0000000e-01, 1.2900000e-03
6692, 1.0000000e-01, 5.0000000e-01, 1.2900000e-03
6693, 1.1250000e-01, 5.0000000e-01, 1.2900000e-03
6694, 1.2500000e-01, 5.0000000e-01, 1.2900000e-03
6695, 1.3750000e-01, 5.0000000e-01, 1.2900000e-03
6696, 1.5000000e-01, 5.0000000e-01, 1.2900000e-03
6697, 1.6250000e-01, 5.0000000e-01, 1.2900000e-03
6698, 1.7500000e-01, 5.0000000e-01, 1.2900000e-03
6699, 1.8750000e-01, 5.0000000e-01, 1.2900000e-03
6700, 2.0000000e-01, 5.0000000e-01, 1.2900000e-03
6701, 2.1250000e-01, 5.0000000e-01, 1.2900000e-03
6702, 2.2500000e-01, 5.0000000e-01, 1.2900000e-03
6703, 2.3750000e-01, 5.0000000e-01, 1.2900000e-03
6704, 2.5000000e-01, 5.0000000e-01, 1.2900000e-03
6705, 2.6250000e-01, 5.0000000e-01, 1.2900000e-03
6706, 2.7500000e-01, 5.0000000e-01, 1.2900000e-03
6707, 2.8750000e-01, 5.0000000e-01, 1.2900000e-03
6708, 3.0000000e-01, 5.0000000e-01, 1.2900000e-03
6709, 3.1250000e-01, 5.0000000e-01, 1.2900000e-03
6710, 3.2500000e-01, 5.0000000e-01, 1.2900000e-03
6711, 3.3750000e-01, 5.0000000e-01, 1.2900000e-03
6712, 3.5000000e-01, 5.0000000e-01, 1.2900000e-03
6713, 3.6250000e-01, 5.0000000e-01, 1.2900000e-03
6714, 3.7500000e-01, 5.0000000e-01, 1.2900000e-03
6715, 3.8750000e-01, 5.0000000e-01, 1.2900000e-03
6716, 4.0000000e-01, 5.0000000e-01, 1.2900000e-03
6717, 4.1250000e-01, 5.0000000e-01, 1.2900000e-03
6718, 4.2500000e-01, 5.0000000e-01, 1.2900000e-03
6719, 4.3750000e-01, 5.0000000e-01, 1.2900000e-03
6720, 4.5000000e-01, 5.0000000e-01, 1.2900000e-03
6721, 4.6250000e-01, 5.0000000e-01, 1.2900000e-03
6722, 4.7500000e-01, 5.0000000e-01, 1.2900000e-03
6723, 4.8750000e-01, 5.0000000e-01, 1.2900000e-03
6724, 5.0000000e-01, 5.0000000e-01, 1.2900000e-03
6725, 0.0000000e+00, 0.0000000e+00, 1.7200000e-03
6726, 1.2500000e-02, 0.0000000e+00, 1.7200000e-03
6727, 2.5000000e-02, 0.0000000e+00, 1.7200000e-03
6728, 3.7500000e-02, 0.0000000e+00, 1.7200000e-03
6729, 5.0000000e-02, 0.0000000e+00, 1.7200000e-03
6730, 6.2500000e-02, 0.0000000e+00, 1.7200000e-03
6731, 7.5000000e-02, 0.0000000e+00, 1.7200000e-03
6732, 8.7500000e-02, 0.0000000e+00, 1.7200000e-03
6733, 1.0000000e-01, 0.0000000e+00, 1.7200000e-03
6734, 1.1250000e-01, 0.0000000e+00, 1.7200000e-03
6735, 1.2500000e-01, 0.0000000e+00, 1.7200000e-03
6736, 1.3750000e-01, 0.0000000e+00, 1.7200000e-03
6737, 1.5000000e-01, 0.0000000e+00, 1.7200000e-03
6738, 1.6250000e-01, 0.0000000e+00, 1.7200000e-03
6739, 1.7500000e-01, 0.0000000e+00, 1.7200000e-03
6740, 1.8750000e-01, 0.0000000e+00, 1.7200000e-03
6741, 2.0000000e-01, 0.0000000e+00, 1.7200000e-03
6742, 2.1250000e-01, 0.0000000e+00, 1.7200000e-03
6743, 2.2500000e-01, 0.0000000e+00, 1.7200000e-03
6744, 2.3750000e-01, 0.0000000e+00, 1.7200000e-03
6745, 2.5000000e-01, 0.0000000e+00, 1.7200000e-03
6746, 2.6250000e-01, 0.0000000e+00, 1.7200000e-03
6747, 2.7500000e-01, 0.0000000e+00, 1.7200000e-03
6748, 2.8750000e-01, 0.0000000e+00, 1.7200000e-03
6749, 3.0000000e-01, 0.0000000e+00, 1.7200000e-03
6750, 3.1250000e-01, 0.0000000e+00, 1.7200000e-03
6751, 3.2500000e-01, 0.0000000e+00, 1.7200000e-03
6752, 3.3750000e-01, 0.0000000e+00, 1.7200000e-03
6753, 3.5000000e-01, 0.0000000e+00, 1.7200000e-03
6754, 3.6250000e-01, 0.0000000e+00, 1.7200000e-03
6755, 3.7500000e-01, 0.0000000e+00, 1.7200000e-03
6756, 3.8750000e-01, 0.0000000e+00, 1.7200000e-03
6757, 4.0000000e-01, 0.0000000e+00, 1.7200000e-03
6758, 4.1250000e-01, 0.0000000e+00, 1.7200000e-03
6759, 4.2500000e-01, 0.0000000e+00, 1.7200000e-03
6760, 4.3750000e-01, 0.0000000e+00, 1.7200000e-03
6761, 4.5000000e-01, 0.0000000e+00, 1.7200000e-03
6762, 4.6250000e-01, 0.0000000e+00, 1.7200000e-03
6763, 4.7500000e-01, 0.0000000e+00, 1.7200000e-03
6764, 4.8750000e-01, 0.0000000e+00, 1.7200000e-03
6765, 5.0000000e-01, 0.0000000e+00, 1.7200000e-03
6766, 0.0000000e+00, 1.2500000e-02, 1.7200000e-03
6767, 1.2500000e-02, 1.2500000e-02, 1.7200000e-03
6768, 2.5000000e-02, 1.2500000e-02, 1.7200000e-03
6769, 3.7500000e-02, 1.2500000e-02, 1.7200000e-03
6770, 5.0000000e-02, 1.2500000e-02, 1.7200000e-03
6771, 6.2500000e-02, 1.2500000e-02, 1.7200000e-03
6772, 7.5000000e-02, 1.2500000e-02, 1.7200000e-03
6773, 8.7500000e-02, 1.2500000e-02, 1.7200000e-03
6774, 1.0000000e-01, 1.2500000e-02, 1.7200000e-03
6775, 1.1250000e-01, 1.2500000e-02, 1.7200000e-03
6776, 1.2500000e-01, 1.2500000e-02, 1.7200000e-03
6777, 1.3750000e-01, 1.2500000e-02, 1.7200000e-03
6778, 1.5000000e-01, 1.2500000e-02, 1.7200000e-03
6779, 1.6250000e-01, 1.2500000e-02, 1.7200000e-03
6780, 1.7500000e-01, 1.2500000e-02, 1.7200000e-03
6781, 1.8750000e-01, 1.2500000e-02, 1.7200000e-03
6782, 2.0000000e-01, 1.2500000e-02, 1.7200000e-03
6783, 2.1250000e-01, 1.2500000e-02, 1.7200000e-03
6784, 2.2500000e-01, 1.2500000e-02, 1.7200000e-03
6785, 2.3750000e-01, 1.2500000e-02, 1.7200000e-03
6786, 2.5000000e-01, 1.2500000e-02, 1.7200000e-03
6787, 2.6250000e-01, 1.2500000e-02, 1.7200000e-03
6788, 2.7500000e-01, 1.2500000e-02, 1.7200000e-03
6789, 2.8750000e-01, 1.2500000e-02, 1.7200000e-03
6790, 3.0000000e-01, 1.2500000e-02, 1.7200000e-03
6791, 3.1250000e-01, 1.2500000e-02, 1.7200000e-03
6792, 3.2500000e-01, 1.2500000e-02, 1.7200000e-03
6793, 3.3750000e-01, 1.2500000e-02, 1.7200000e-03
6794, 3.5000000e-01, 1.2500000e-02, 1.7200000e-03
6795, 3.6250000e-01, 1.2500000e-02, 1.7200000e-03
6796, 3.7500000e-01, 1.2500000e-02, 1.7200000e-03
6797, 3.8750000e-01, 1.2500000e-02, 1.7200000e-03
6798, 4.0000000e-01, 1.2500000e-02, 1.7200000e-03
6799, 4.1250000e-01, 1.2500000e-02, 1.7200000e-03
6800, 4.2500000e-01, 1.2500000e-02, 1.7200000e-03
6801, 4.3750000e-01, 1.2500000e-02, 1.7200000e-03
6802, 4.5000000e-01, 1.2500000e-02, 1.7200000e-03
6803, 4.6250000e-01, 1.2500000e-02, 1.7200000e-03
6804, 4.7500000e-01, 1.2500000e-02, 1.7200000e-03
6805, 4.8750000e-01, 1.2500000e-02, 1.7200000e-03
6806, 5.0000000e-01, 1.2500000e-02, 1.7200000e-03
6807, 0.0000000e+00, 2.5000000e-02, 1.7200000e-03
6808, 1.2500000e-02, 2.5000000e-02, 1.7200000e-03
6809, 2.5000000e-02, 2.5000000e-02, 1.7200000e-03
6810, 3.7500000e-02, 2.5000000e-02, 1.7200000e-03
6811, 5.0000000e-02, 2.5000000e-02, 1.7200000e-03
6812, 6.2500000e-02, 2.5000000e-02, 1.7200000e-03
6813, 7.5000000e-02, 2.5000000e-02, 1.7200000e-03
6814, 8.7500000e-02, 2.5000000e-02, 1.7200000e-03
6815, 1.0000000e-01, 2.5000000e-02, 1.7200000e-03
6816, 1.1250000e-01, 2.5000000e-02, 1.7200000e-03
6817, 1.2500000e-01, 2.5000000e-02, 1.7200000e-03
6818, 1.3750000e-01, 2.5000000e-02, 1.7200000e-03
6819, 1.5000000e-01, 2.5000000e-02, 1.7200000e-03
6820, 1.6250000e-01, 2.5000000e-02, 1.7200000e-03
6821, 1.7500000e-01, 2.5000000e-02, 1.7200000e-03
6822, 1.8750000e-01, 2.5000000e-02, 1.7200000e-03
6823, 2.0000000e-01, 2.5000000e-02, 1.7200000e-03
6824, 2.1250000e-01, 2.5000000e-02, 1.7200000e-03
6825, 2.2500000e-01, 2.5000000e-02, 1.7200000e-03
6826, 2.3750000e-01, 2.5000000e-02, 1.7200000e-03
6827, 2.5000000e-01, 2.5000000e-02, 1.7200000e-03
6828, 2.6250000e-01, 2.5000000e-02, 1.7200000e-03
6829, 2.7500000e-01, 2.5000000e-02, 1.7200000e-03
6830, 2.8750000e-01, 2.5000000e-02, 1.7200000e-03
6831, 3.0000000e-01, 2.5000000e-02, 1.7200000e-03
6832, 3.1250000e-01, 2.5000000e-02, 1.7200000e-03
6833, 3.2500000e-01, 2.5000000e-02, 1.7200000e-03
6834, 3.3750000e-01, 2.5000000e-02, 1.7200000e-03
6835, 3.5000000e-01, 2.5000000e-02, 1.7200000e-03
6836, 3.6250000e-01, 2.5000000e-02, 1.7200000e-03
6837, 3.7500000e-01, 2.5000000e-02, 1.7200000e-03
6838, 3.8750000e-01, 2.5000000e-02, 1.7200000e-03
6839, 4.0000000e-01, 2.5000000e-02, 1.7200000e-03
6840, 4.1250000e-01, 2.5000000e-02, 1.7200000e-03
6841, 4.2500000e-01, 2.5000000e-02, 1.7200000e-03
6842, 4.3750000e-01, 2.5000000e-02, 1.7200000e-03
6843, 4.5000000e-01, 2.5000000e-02, 1.7200000e-03
6844, 4.6250000e-01, 2.5000000e-02, 1.7200000e-03
6845, 4.7500000e-01, 2.5000000e-02, 1.7200000e-03
6846, 4.8750000e-01, 2.5000000e-02, 1.7200000e-03
6847, 5.0000000e-01, 2.5000000e-02, 1.7200000e-03
6848, 0.0000000e+00, 3.7500000e-02, 1.7200000e-03
6849, 1.2500000e-02, 3.7500000e-02, 1.7200000e-03
6850, 2.5000000e-02, 3.7500000e-02, 1.7200000e-03
6851, 3.7500000e-02, 3.7500000e-02, 1.7200000e-03
6852, 5.0000000e-02, 3.7500000e-02, 1.7200000e-03
6853, 6.2500000e-02, 3.7500000e-02, 1.7200000e-03
6854, 7.5000000e-02, 3.7500000e-02, 1.7200000e-03
6855, 8.7500000e-02, 3.7500000e-02, 1.7200000e-03
6856, 1.0000000e-01, 3.7500000e-02, 1.7200000e-03
6857, 1.1250000e-01, 3.7500000e-02, 1.7200000e-03
6858, 1.2500000e-01, 3.7500000e-02, 1.7200000e-03
6859, 1.3750000e-01, 3.7500000e-02, 1.7200000e-03
6860, 1.5000000e-01, 3.7500000e-02, 1.7200000e-03
6861, 1.6250000e-01, 3.7500000e-02, 1.7200000e-03
6862, 1.7500000e-01, 3.7500000e-02, 1.7200000e-03
6863, 1.8750000e-01, 3.7500000e-02, 1.7200000e-03
6864, 2.0000000e-01, 3.7500000e-02, 1.7200000e-03
6865, 2.1250000e-01, 3.7500000e-02, 1.7200000e-03
6866, 2.2500000e-01, 3.7500000e-02, 1.7200000e-03
6867, 2.3750000e-01, 3.7500000e-02, 1.7200000e-03
6868, 2.5000000e-01, 3.7500000e-02, 1.7200000e-03
6869, 2.6250000e-01, 3.7500000e-02, 1.7200000e-03
6870, 2.7500000e-01, 3.7500000e-02, 1.7200000e-03
6871, 2.8750000e-01, 3.7500000e-02, 1.7200000e-03
6872, 3.0000000e-01, 3.7500000e-02, 1.7200000e-03
6873, 3.1250000e-01, 3.7500000e-02, 1.7200000e-03
6874, 3.2500000e-01, 3.7500000e-02, 1.7200000e-03
6875, 3.3750000e-01, 3.7500000e-02, 1.7200000e-03
6876, 3.5000000e-01, 3.7500000e-02, 1.7200000e-03
6877, 3.6250000e-01, 3.7500000e-02, 1.7200000e-03
6878, 3.7500000e-01, 3.7500000e-02, 1.7200000e-03
6879, 3.8750000e-01, 3.7500000e-02, 1.7200000e-03
6880, 4.0000000e-01, 3.7500000e-02, 1.7200000e-03
6881, 4.1250000e-01, 3.7500000e-02, 1.7200000e-03
6882, 4.2500000e-01, 3.7500000e-02, 1.7200000e-03
6883, 4.3750000e-01, 3.7500000e-02, 1.7200000e-03
6884, 4.5000000e-01, 3.7500000e-02, 1.7200000e-03
6885, 4.6250000e-01, 3.7500000e-02, 1.7200000e-03
6886, 4.7500000e-01, 3.7500000e-02, 1.7200000e-03
6887, 4.8750000e-01, 3.7500000e-02, 1.7200000e-03
6888, 5.0000000e-01, 3.7500000e-02, 1.7200000e-03
6889, 0.0000000e+00, 5.0000000e-02, 1.7200000e-03
6890, 1.2500000e-02, 5.0000000e-02, 1.7200000e-03
6891, 2.5000000e-02, 5.0000000e-02, 1.7200000e-03
6892, 3.7500000e-02, 5.0000000e-02, 1.7200000e-03
6893, 5.0000000e-02, 5.0000000e-02, 1.7200000e-03
6894, 6.2500000e-02, 5.0000000e-02, 1.7200000e-03
6895, 7.5000000e-02, 5.0000000e-02, 1.7200000e-03
6896, 8.7500000e-02, 5.0000000e-02, 1.7200000e-03
6897, 1.0000000e-01, 5.0000000e-02, 1.7200000e-03
6898, 1.1250000e-01, 5.0000000e-02, 1.7200000e-03
6899, 1.2500000e-01, 5.0000000e-02, 1.7200000e-03
6900, 1.3750000e-01, 5.0000000e-02, 1.7200000e-03
6901, 1.5000000e-01, 5.0000000e-02, 1.7200000e-03
6902, 1.6250000e-01, 5.0000000e-02, 1.7200000e-03
6903, 1.7500000e-01, 5.0000000e-02, 1.7200000e-03
6904, 1.8750000e-01, 5.0000000e-02, 1.7200000e-03
6905, 2.0000000e-01, 5.0000000e-02, 1.7200000e-03
6906, 2.1250000e-01, 5.0000000e-02, 1.7200000e-03
6907, 2.2500000e-01, 5.0000000e-02, 1.7200000e-03
6908, 2.3750000e-01, 5.0000000e-02, 1.7200000e-03
6909, 2.5000000e-01, 5.0000000e-02, 1.7200000e-03
6910, 2.6250000e-01, 5.0000000e-02, 1.7200000e-03
6911, 2.7500000e-01, 5.0000000e-02, 1.7200000e-03
6912, 2.8750000e-01, 5.0000000e-02, 1.7200000e-03
6913, 3.0000000e-01, 5.0000000e-02, 1.7200000e-03
6914, 3.1250000e-01, 5.0000000e-02, 1.7200000e-03
6915, 3.2500000e-01, 5.0000000e-02, 1.7200000e-03
6916, 3.3750000e-01, 5.0000000e-02, 1.7200000e-03
6917, 3.5000000e-01, 5.0000000e-02, 1.7200000e-03
6918, 3.6250000e-01, 5.0000000e-02, 1.7200000e-03
6919, 3.7500000e-01, 5.0000000e-02, 1.7200000e-03
6920, 3.8750000e-01, 5.0000000e-02, 1.7200000e-03
6921, 4.0000000e-01, 5.0000000e-02, 1.7200000e-03
6922, 4.1250000e-01, 5.0000000e-02, 1.7200000e-03
6923, 4.2500000e-01, 5.0000000e-02, 1.7200000e-03
6924, 4.3750000e-01, 5.0000000e-02, 1.7200000e-03
6925, 4.5000000e-01, 5.0000000e-02, 1.7200000e-03
6926, 4.6250000e-01, 5.0000000e-02, 1.7200000e-03
6927, 4.7500000e-01, 5.0000000e-02, 1.7200000e-03
6928, 4.8750000e-01, 5.0000000e-02, 1.7200000e-03
6929, 5.0000000e-01, 5.0000000e-02, 1.7200000e-03
6930, 0.0000000e+00, 6.2500000e-02, 1.7200000e-03
6931, 1.2500000e-02, 6.2500000e-02, 1.7200000e-03
6932, 2.5000000e-02, 6.2500000e-02, 1.7200000e-03
6933, 3.7500000e-02, 6.2500000e-02, 1.7200000e-03
6934, 5.0000000e-02, 6.2500000e-02, 1.7200000e-03
6935, 6.2500000e-02, 6.2500000e-02, 1.7200000e-03
6936, 7.5000000e-02, 6.2500000e-02, 1.7200000e-03
6937, 8.7500000e-02, 6.2500000e-02, 1.7200000e-03
6938, 1.0000000e-01, 6.2500000e-02, 1.7200000e-03
6939, 1.1250000e-01, 6.2500000e-02, 1.7200000e-03
6940, 1.2500000e-01, 6.2500000e-02, 1.7200000e-03
6941, 1.3750000e-01, 6.2500000e-02, 1.7200000e-03
6942, 1.5000000e-01, 6.2500000e-02, 1.7200000e-03
6943, 1.6250000e-01, 6.2500000e-02, 1.7200000e-03
6944, 1.7500000e-01, 6.2500000e-02, 1.7200000e-03
6945, 1.8750000e-01, 6.2500000e-02, 1.7200000e-03
6946, 2.0000000e-01, 6.2500000e-02, 1.7200000e-03
6947, 2.1250000e-01, 6.2500000e-02, 1.7200000e-03
6948, 2.2500000e-01, 6.2500000e-02, 1.7200000e-03
6949, 2.3750000e-01, 6.2500000e-02, 1.7200000e-03
6950, 2.5000000e-01, 6.2500000e-02, 1.7200000e-03
6951, 2.6250000e-01, 6.2500000e-02, 1.7200000e-03
6952, 2.7500000e-01, 6.2500000e-02, 1.7200000e-03
6953, 2.8750000e-01, 6.2500000e-02, 1.7200000e-03
6954, 3.0000000e-01, 6.2500000e-02, 1.7200000e-03
6955, 3.1250000e-01, 6.2500000e-02, 1.7200000e-03
6956, 3.2500000e-01, 6.2500000e-02, 1.7200000e-03
6957, 3.3750000e-01, 6.2500000e-02, 1.7200000e-03
6958, 3.5000000e-01, 6.2500000e-02, 1.7200000e-03
6959, 3.6250000e-01, 6.2500000e-02, 1.7200000e-03
6960, 3.7500000e-01, 6.2500000e-02, 1.7200000e-03
6961, 3.8750000e-01, 6.2500000e-02, 1.7200000e-03
6962, 4.0000000e-01, 6.2500000e-02, 1.7200000e-03
6963, 4.1250000e-01, 6.2500000e-02, 1.7200000e-03
6964, 4.2500000e-01, 6.2500000e-02, 1.7200000e-03
6965, 4.3750000e-01, 6.2500000e-02, 1.7200000e-03
6966, 4.5000000e-01, 6.2500000e-02, 1.7200000e-03
6967, 4.6250000e-01, 6.2500000e-02, 1.7200000e-03
6968, 4.7500000e-01, 6.2500000e-02, 1.7200000e-03
6969, 4.8750000e-01, 6.2500000e-02, 1.7200000e-03
6970, 5.0000000e-01, 6.2500000e-02, 1.7200000e-03
6971, 0.0000000e+00, 7.5000000e-02, 1.7200000e-03
6972, 1.2500000e-02, 7.5000000e-02, 1.7200000e-03
6973, 2.5000000e-02, 7.5000000e-02, 1.7200000e-03
6974, 3.7500000e-02, 7.5000000e-02, 1.7200000e-03
6975, 5.0000000e-02, 7.5000000e-02, 1.7200000e-03
6976, 6.2500000e-02, 7.5000000e-02, 1.7200000e-03
6977, 7.5000000e-02, 7.5000000e-02, 1.7200000e-03
6978, 8.7500000e-02, 7.5000000e-02, 1.7200000e-03
6979, 1.0000000e-01, 7.5000000e-02, 1.7200000e-03
6980, 1.1250000e-01, 7.5000000e-02, 1.7200000e-03
6981, 1.2500000e-01, 7.5000000e-02, 1.7200000e-03
6982, 1.3750000e-01, 7.5000000e-02, 1.7200000e-03
6983, 1.5000000e-01, 7.5000000e-02, 1.7200000e-03
6984, 1.6250000e-01, 7.5000000e-02, 1.7200000e-03
6985, 1.7500000e-01, 7.5000000e-02, 1.7200000e-03
6986, 1.8750000e-01, 7.5000000e-02, 1.7200000e-03
6987, 2.0000000e-01, 7.5000000e-02, 1.7200000e-03
6988, 2.1250000e-01, 7.5000000e-02, 1.7200000e-03
6989, 2.2500000e-01, 7.5000000e-02, 1.7200000e-03
6990, 2.3750000e-01, 7.5000000e-02, 1.7200000e-03
6991, 2.5000000e-01, 7.5000000e-02, 1.7200000e-03
6992, 2.6250000e-01, 7.5000000e-02, 1.7200000e-03
6993, 2.7500000e-01, 7.5000000e-02, 1.7200000e-03
6994, 2.8750000e-01, 7.5000000e-02, 1.7200000e-03
6995, 3.0000000e-01, 7.5000000e-02, 1.7200000e-03
6996, 3.1250000e-01, 7.5000000e-02, 1.7200000e-03
6997, 3.2500000e-01, 7.5000000e-02, 1.7200000e-03
6998, 3.3750000e-01, 7.5000000e-02, 1.7200000e-03
6999, 3.5000000e-01, 7.5000000e-02, 1.7200000e-03
7000, 3.6250000e-01, 7.5000000e-02, 1.7200000e-03
7001, 3.7500000e-01, 7.5000000e-02, 1.7200000e-03
7002, 3.8750000e-01, 7.5000000e-02, 1.7200000e-03
7003, 4.0000000e-01, 7.5000000e-02, 1.7200000e-03
7004, 4.1250000e-01, 7.5000000e-02, 1.7200000e-03
7005, 4.2500000e-01, 7.5000000e-02, 1.7200000e-03
7006, 4.3750000e-01, 7.5000000e-02, 1.7200000e-03
7007, 4.5000000e-01, 7.5000000e-02, 1.7200000e-03
7008, 4.6250000e-01, 7.5000000e-02, 1.7200000e-03
7009, 4.7500000e-01, 7.5000000e-02, 1.7200000e-03
7010, 4.8750000e-01, 7.5000000e-02, 1.7200000e-03
7011, 5.0000000e-01, 7.5000000e-02, 1.7200000e-03
7012, 0.0000000e+00, 8.7500000e-02, 1.7200000e-03
7013, 1.2500000e-02, 8.7500000e-02, 1.7200000e-03
7014, 2.5000000e-02, 8.7500000e-02, 1.7200000e-03
7015, 3.7500000e-02, 8.7500000e-02, 1.7200000e-03
7016, 5.0000000e-02, 8.7500000e-02, 1.7200000e-03
7017, 6.2500000e-02, 8.7500000e-02, 1.7200000e-03
7018, 7.5000000e-02, 8.7500000e-02, 1.7200000e-03
7019, 8.7500000e-02, 8.7500000e-02, 1.7200000e-03
7020, 1.0000000e-01, 8.7500000e-02, 1.7200000e-03
7021, 1.1250000e-01, 8.7500000e-02, 1.7200000e-03
7022, 1.2500000e-01, 8.7500000e-02, 1.7200000e-03
7023, 1.3750000e-01, 8.7500000e-02, 1.7200000e-03
7024, 1.5000000e-01, 8.7500000e-02, 1.7200000e-03
7025, 1.6250000e-01, 8.7500000e-02, 1.7200000e-03
7026, 1.7500000e-01, 8.7500000e-02, 1.7200000e-03
7027, 1.8750000e-01, 8.7500000e-02, 1.7200000e-03
7028, 2.0000000e-01, 8.7500000e-02, 1.7200000e-03
7029, 2.1250000e-01, 8.7500000e-02, 1.7200000e-03
7030, 2.2500000e-01, 8.7500000e-02, 1.7200000e-03
7031, 2.3750000e-01, 8.7500000e-02, 1.7200000e-03
7032, 2.5000000e-01, 8.7500000e-02, 1.7200000e-03
7033, 2.6250000e-01, 8.7500000e-02, 1.7200000e-03
7034, 2.7500000e-01, 8.7500000e-02, 1.7200000e-03
7035, 2.8750000e-01, 8.7500000e-02, 1.7200000e-03
7036, 3.0000000e-01, 8.7500000e-02, 1.7200000e-03
7037, 3.1250000e-01, 8.7500000e-02, 1.7200000e-03
7038, 3.2500000e-01, 8.7500000e-02, 1.7200000e-03
7039, 3.3750000e-01, 8.7500000e-02, 1.7200000e-03
7040, 3.5000000e-01, 8.7500000e-02, 1.7200000e-03
7041, 3.6250000e-01, 8.7500000e-02, 1.7200000e-03
7042, 3.7500000e-01, 8.7500000e-02, 1.7200000e-03
7043, 3.8750000e-01, 8.7500000e-02, 1.7200000e-03
7044, 4.0000000e-01, 8.7500000e-02, 1.7200000e-03
7045, 4.1250000e-01, 8.7500000e-02, 1.7200000e-03
7046, 4.2500000e-01, 8.7500000e-02, 1.7200000e-03
7047, 4.3750000e-01, 8.7500000e-02, 1.7200000e-03
7048, 4.5000000e-01, 8.7500000e-02, 1.7200000e-03
7049, 4.6250000e-01, 8.7500000e-02, 1.7200000e-03
7050, 4.7500000e-01, 8.7500000e-02, 1.7200000e-03
7051, 4.8750000e-01, 8.7500000e-02, 1.7200000e-03
7052, 5.0000000e-01, 8.7500000e-02, 1.7200000e-03
7053, 0.0000000e+00, 1.0000000e-01, 1.7200000e-03
7054, 1.2500000e-02, 1.0000000e-01, 1.7200000e-03
7055, 2.5000000e-02, 1.0000000e-01, 1.7200000e-03
7056, 3.7500000e-02, 1.0000000e-01, 1.7200000e-03
7057, 5.0000000e-02, 1.0000000e-01, 1.7200000e-03
7058, 6.2500000e-02, 1.0000000e-01, 1.7200000e-03
7059, 7.5000000e-02, 1.0000000e-01, 1.7200000e-03
7060, 8.7500000e-02, 1.0000000e-01, 1.7200000e-03
7061, 1.0000000e-01, 1.0000000e-01, 1.7200000e-03
7062, 1.1250000e-01, 1.0000000e-01, 1.7200000e-03
7063, 1.2500000e-01, 1.0000000e-01, 1.7200000e-03
7064, 1.3750000e-01, 1.0000000e-01, 1.7200000e-03
7065, 1.5000000e-01, 1.0000000e-01, 1.7200000e-03
7066, 1.6250000e-01, 1.0000000e-01, 1.7200000e-03
7067, 1.7500000e-01, 1.0000000e-01, 1.7200000e-03
7068, 1.8750000e-01, 1.0000000e-01, 1.7200000e-03
7069, 2.0000000e-01, 1.0000000e-01, 1.7200000e-03
7070, 2.1250000e-01, 1.0000000e-01, 1.7200000e-03
7071, 2.2500000e-01, 1.0000000e-01, 1.7200000e-03
7072, 2.3750000e-01, 1.0000000e-01, 1.7200000e-03
7073, 2.5000000e-01, 1.0000000e-01, 1.7200000e-03
7074, 2.6250000e-01, 1.0000000e-01, 1.7200000e-03
7075, 2.7500000e-01, 1.0000000e-01, 1.7200000e-03
7076, 2.8750000e-01, 1.0000000e-01, 1.7200000e-03
7077, 3.0000000e-01, 1.0000000e-01, 1.7200000e-03
7078, 3.1250000e-01, 1.0000000e-01, 1.7200000e-03
7079, 3.2500000e-01, 1.0000000e-01, 1.7200000e-03
7080, 3.3750000e-01, 1.0000000e-01, 1.7200000e-03
7081, 3.5000000e-01, 1.0000000e-01, 1.7200000e-03
7082, 3.6250000e-01, 1.0000000e-01, 1.7200000e-03
7083, 3.7500000e-01, 1.0000000e-01, 1.7200000e-03
7084, 3.8750000e-01, 1.0000000e-01, 1.7200000e-03
7085, 4.0000000e-01, 1.0000000e-01, 1.7200000e-03
7086, 4.1250000e-01, 1.0000000e-01, 1.7200000e-03
7087, 4.2500000e-01, 1.0000000e-01, 1.7200000e-03
7088, 4.3750000e-01, 1.0000000e-01, 1.7200000e-03
7089, 4.5000000e-01, 1.0000000e-01, 1.7200000e-03
7090, 4.6250000e-01, 1.0000000e-01, 1.7200000e-03
7091, 4.7500000e-01, 1.0000000e-01, 1.7200000e-03
7092, 4.8750000e-01, 1.0000000e-01, 1.7200000e-03
7093, 5.0000000e-01, 1.0000000e-01, 1.7200000e-03
7094, 0.0000000e+00, 1.1250000e-01, 1.7200000e-03
7095, 1.2500000e-02, 1.1250000e-01, 1.7200000e-03
7096, 2.5000000e-02, 1.1250000e-01, 1.7200000e-03
7097, 3.7500000e-02, 1.1250000e-01, 1.7200000e-03
7098, 5.0000000e-02, 1.1250000e-01, 1.7200000e-03
7099, 6.2500000e-02, 1.1250000e-01, 1.7200000e-03
7100, 7.5000000e-02, 1.1250000e-01, 1.7200000e-03
7101, 8.7500000e-02, 1.1250000e-01, 1.7200000e-03
7102, 1.0000000e-01, 1.1250000e-01, 1.7200000e-03
7103, 1.1250000e-01, 1.1250000e-01, 1.7200000e-03
7104, 1.2500000e-01, 1.1250000e-01, 1.7200000e-03
7105, 1.3750000e-01, 1.1250000e-01, 1.7200000e-03
7106, 1.5000000e-01, 1.1250000e-01, 1.7200000e-03
7107, 1.6250000e-01, 1.1250000e-01, 1.7200000e-03
7108, 1.7500000e-01, 1.1250000e-01, 1.7200000e-03
7109, 1.8750000e-01, 1.1250000e-01, 1.7200000e-03
7110, 2.0000000e-01, 1.1250000e-01, 1.7200000e-03
7111, 2.1250000e-01, 1.1250000e-01, 1.7200000e-03
7112, 2.2500000e-01, 1.1250000e-01, 1.7200000e-03
7113, 2.3750000e-01, 1.1250000e-01, 1.7200000e-03
7114, 2.5000000e-01, 1.1250000e-01, 1.7200000e-03
7115, 2.6250000e-01, 1.1250000e-01, 1.7200000e-03
7116, 2.7500000e-01, 1.1250000e-01, 1.7200000e-03
7117, 2.8750000e-01, 1.1250000e-01, 1.7200000e-03
7118, 3.0000000e-01, 1.1250000e-01, 1.7200000e-03
7119, 3.1250000e-01, 1.1250000e-01, 1.7200000e-03
7120, 3.2500000e-01, 1.1250000e-01, 1.7200000e-03
7121, 3.3750000e-01, 1.1250000e-01, 1.7200000e-03
7122, 3.5000000e-01, 1.1250000e-01, 1.7200000e-03
7123, 3.6250000e-01, 1.1250000e-01, 1.7200000e-03
7124, 3.7500000e-01, 1.1250000e-01, 1.7200000e-03
7125, 3.8750000e-01, 1.1250000e-01, 1.7200000e-03
7126, 4.0000000e-01, 1.1250000e-01, 1.7200000e-03
7127, 4.1250000e-01, 1.1250000e-01, 1.7200000e-03
7128, 4.2500000e-01, 1.1250000e-01, 1.7200000e-03
7129, 4.3750000e-01, 1.1250000e-01, 1.7200000e-03
7130, 4.5000000e-01, 1.1250000e-01, 1.7200000e-03
7131, 4.6250000e-01, 1.1250000e-01, 1.7200000e-03
7132, 4.7500000e-01, 1.1250000e-01, 1.7200000e-03
7133, 4.8750000e-01, 1.1250000e-01, 1.7200000e-03
7134, 5.0000000e-01, 1.1250000e-01, 1.7200000e-03
7135, 0.0000000e+00, 1.2500000e-01, 1.7200000e-03
7136, 1.2500000e-02, 1.2500000e-01, 1.7200000e-03
7137, 2.5000000e-02, 1.2500000e-01, 1.7200000e-03
7138, 3.7500000e-02, 1.2500000e-01, 1.7200000e-03
7139, 5.0000000e-02, 1.2500000e-01, 1.7200000e-03
7140, 6.2500000e-02, 1.2500000e-01, 1.7200000e-03
7141, 7.5000000e-02, 1.2500000e-01, 1.7200000e-03
7142, 8.7500000e-02, 1.2500000e-01, 1.7200000e-03
7143, 1.0000000e-01, 1.2500000e-01, 1.7200000e-03
7144, 1.1250000e-01, 1.2500000e-01, 1.7200000e-03
7145, 1.2500000e-01, 1.2500000e-01, 1.7200000e-03
7146, 1.3750000e-01, 1.2500000e-01, 1.7200000e-03
7147, 1.5000000e-01, 1.2500000e-01, 1.7200000e-03
7148, 1.6250000e-01, 1.2500000e-01, 1.7200000e-03
7149, 1.7500000e-01, 1.2500000e-01, 1.7200000e-03
7150, 1.8750000e-01, 1.2500000e-01, 1.7200000e-03
7151, 2.0000000e-01, 1.2500000e-01, 1.7200000e-03
7152, 2.1250000e-01, 1.2500000e-01, 1.7200000e-03
7153, 2.2500000e-01, 1.2500000e-01, 1.7200000e-03
7154, 2.3750000e-01, 1.2500000e-01, 1.7200000e-03
7155, 2.5000000e-01, 1.2500000e-01, 1.7200000e-03
7156, 2.6250000e-01, 1.2500000e-01, 1.7200000e-03
7157, 2.7500000e-01, 1.2500000e-01, 1.7200000e-03
7158, 2.8750000e-01, 1.2500000e-01, 1.7200000e-03
7159, 3.0000000e-01, 1.2500000e-01, 1.7200000e-03
7160, 3.1250000e-01, 1.2500000e-01, 1.7200000e-03
7161, 3.2500000e-01, 1.2500000e-01, 1.7200000e-03
7162, 3.3750000e-01, 1.2500000e-01, 1.7200000e-03
7163, 3.5000000e-01, 1.2500000e-01, 1.7200000e-03
7164, 3.6250000e-01, 1.2500000e-01, 1.7200000e-03
7165, 3.7500000e-01, 1.2500000e-01, 1.7200000e-03
7166, 3.8750000e-01, 1.2500000e-01, 1.7200000e-03
7167, 4.0000000e-01, 1.2500000e-01, 1.7200000e-03
7168, 4.1250000e-01, 1.2500000e-01, 1.7200000e-03
7169, 4.2500000e-01, 1.2500000e-01, 1.7200000e-03
7170, 4.3750000e-01, 1.2500000e-01, 1.7200000e-03
7171, 4.5000000e-01, 1.2500000e-01, 1.7200000e-03
7172, 4.6250000e-01, 1.2500000e-01, 1.7200000e-03
7173, 4.7500000e-01, 1.2500000e-01, 1.7200000e-03
7174, 4.8750000e-01, 1.2500000e-01, 1.7200000e-03
7175, 5.0000000e-01, 1.2500000e-01, 1.7200000e-03
7176, 0.0000000e+00, 1.3750000e-01, 1.7200000e-03
7177, 1.2500000e-02, 1.3750000e-01, 1.7200000e-03
7178, 2.5000000e-02, 1.3750000e-01, 1.7200000e-03
7179, 3.7500000e-02, 1.3750000e-01, 1.7200000e-03
7180, 5.0000000e-02, 1.3750000e-01, 1.7200000e-03
7181, 6.2500000e-02, 1.3750000e-01, 1.7200000e-03
7182, 7.5000000e-02, 1.3750000e-01, 1.7200000e-03
7183, 8.7500000e-02, 1.3750000e-01, 1.7200000e-03
7184, 1.0000000e-01, 1.3750000e-01, 1.7200000e-03
7185, 1.1250000e-01, 1.3750000e-01, 1.7200000e-03
7186, 1.2500000e-01, 1.3750000e-01, 1.7200000e-03
7187, 1.3750000e-01, 1.3750000e-01, 1.7200000e-03
7188, 1.5000000e-01, 1.3750000e-01, 1.7200000e-03
7189, 1.6250000e-01, 1.3750000e-01, 1.7200000e-03
7190, 1.7500000e-01, 1.3750000e-01, 1.7200000e-03
7191, 1.8750000e-01, 1.3750000e-01, 1.7200000e-03
7192, 2.0000000e-01, 1.3750000e-01, 1.7200000e-03
7193, 2.1250000e-01, 1.3750000e-01, 1.7200000e-03
7194, 2.2500000e-01, 1.3750000e-01, 1.7200000e-03
7195, 2.3750000e-01, 1.3750000e-01, 1.7200000e-03
7196, 2.5000000e-01, 1.3750000e-01, 1.7200000e-03
7197, 2.6250000e-01, 1.3750000e-01, 1.7200000e-03
7198, 2.7500000e-01, 1.3750000e-01, 1.7200000e-03
7199, 2.8750000e-01, 1.3750000e-01, 1.7200000e-03
7200, 3.0000000e-01, 1.3750000e-01, 1.7200000e-03
7201, 3.1250000e-01, 1.3750000e-01, 1.7200000e-03
7202, 3.2500000e-01, 1.3750000e-01, 1.7200000e-03
7203, 3.3750000e-01, 1.3750000e-01, 1.7200000e-03
7204, 3.5000000e-01, 1.3750000e-01, 1.7200000e-03
7205, 3.6250000e-01, 1.3750000e-01, 1.7200000e-03
7206, 3.7500000e-01, 1.3750000e-01, 1.7200000e-03
7207, 3.8750000e-01, 1.3750000e-01, 1.7200000e-03
7208, 4.0000000e-01, 1.3750000e-01, 1.7200000e-03
7209, 4.1250000e-01, 1.3750000e-01, 1.7200000e-03
7210, 4.2500000e-01, 1.3750000e-01, 1.7200000e-03
7211, 4.3750000e-01, 1.3750000e-01, 1.7200000e-03
7212, 4.5000000e-01, 1.3750000e-01, 1.7200000e-03
7213, 4.6250000e-01, 1.3750000e-01, 1.7200000e-03
7214, 4.7500000e-01, 1.3750000e-01, 1.7200000e-03
7215, 4.8750000e-01, 1.3750000e-01, 1.7200000e-03
7216, 5.0000000e-01, 1.3750000e-01, 1.7200000e-03
7217, 0.0000000e+00, 1.5000000e-01, 1.7200000e-03
7218, 1.2500000e-02, 1.5000000e-01, 1.7200000e-03
7219, 2.5000000e-02, 1.5000000e-01, 1.7200000e-03
7220, 3.7500000e-02, 1.5000000e-01, 1.7200000e-03
7221, 5.0000000e-02, 1.5000000e-01, 1.7200000e-03
7222, 6.2500000e-02, 1.5000000e-01, 1.7200000e-03
7223, 7.5000000e-02, 1.5000000e-01, 1.7200000e-03
7224, 8.7500000e-02, 1.5000000e-01, 1.7200000e-03
7225, 1.0000000e-01, 1.5000000e-01, 1.7200000e-03
7226, 1.1250000e-01, 1.5000000e-01, 1.7200000e-03
7227, 1.2500000e-01, 1.5000000e-01, 1.7200000e-03
7228, 1.3750000e-01, 1.5000000e-01, 1.7200000e-03
7229, 1.5000000e-01, 1.5000000e-01, 1.7200000e-03
7230, 1.6250000e-01, 1.5000000e-01, 1.7200000e-03
7231, 1.7500000e-01, 1.5000000e-01, 1.7200000e-03
7232, 1.8750000e-01, 1.5000000e-01, 1.7200000e-03
7233, 2.0000000e-01, 1.5000000e-01, 1.7200000e-03
7234, 2.1250000e-01, 1.5000000e-01, 1.7200000e-03
7235, 2.2500000e-01, 1.5000000e-01, 1.7200000e-03
7236, 2.3750000e-01, 1.5000000e-01, 1.7200000e-03
7237, 2.5000000e-01, 1.5000000e-01, 1.7200000e-03
7238, 2.6250000e-01, 1.5000000e-01, 1.7200000e-03
7239, 2.7500000e-01, 1.5000000e-01, 1.7200000e-03
7240, 2.8750000e-01, 1.5000000e-01, 1.7200000e-03
7241, 3.0000000e-01, 1.5000000e-01, 1.7200000e-03
7242, 3.1250000e-01, 1.5000000e-01, 1.7200000e-03
7243, 3.2500000e-01, 1.5000000e-01, 1.7200000e-03
7244, 3.3750000e-01, 1.5000000e-01, 1.7200000e-03
7245, 3.5000000e-01, 1.5000000e-01, 1.7200000e-03
7246, 3.6250000e-01, 1.5000000e-01, 1.7200000e-03
7247, 3.7500000e-01, 1.5000000e-01, 1.7200000e-03
7248, 3.8750000e-01, 1.5000000e-01, 1.7200000e-03
7249, 4.0000000e-01, 1.5000000e-01, 1.7200000e-03
7250, 4.1250000e-01, 1.5000000e-01, 1.7200000e-03
7251, 4.2500000e-01, 1.5000000e-01, 1.7200000e-03
7252, 4.3750000e-01, 1.5000000e-01, 1.7200000e-03
7253, 4.5000000e-01, 1.5000000e-01, 1.7200000e-03
7254, 4.6250000e-01, 1.5000000e-01, 1.7200000e-03
7255, 4.7500000e-01, 1.5000000e-01, 1.7200000e-03
7256, 4.8750000e-01, 1.5000000e-01, 1.7200000e-03
7257, 5.0000000e-01, 1.5000000e-01, 1.7200000e-03
7258, 0.0000000e+00, 1.6250000e-01, 1.7200000e-03
7259, 1.2500000e-02, 1.6250000e-01, 1.7200000e-03
7260, 2.5000000e-02, 1.6250000e-01, 1.7200000e-03
7261, 3.7500000e-02, 1.6250000e-01, 1.7200000e-03
7262, 5.0000000e-02, 1.6250000e-01, 1.7200000e-03
7263, 6.2500000e-02, 1.6250000e-01, 1.7200000e-03
7264, 7.5000000e-02, 1.6250000e-01, 1.7200000e-03
7265, 8.7500000e-02, 1.6250000e-01, 1.7200000e-03
7266, 1.0000000e-01, 1.6250000e-01, 1.7200000e-03
7267, 1.1250000e-01, 1.6250000e-01, 1.7200000e-03
7268, 1.2500000e-01, 1.6250000e-01, 1.7200000e-03
7269, 1.3750000e-01, 1.6250000e-01, 1.7200000e-03
7270, 1.5000000e-01, 1.6250000e-01, 1.7200000e-03
7271, 1.6250000e-01, 1.6250000e-01, 1.7200000e-03
7272, 1.7500000e-01, 1.6250000e-01, 1.7200000e-03
7273, 1.8750000e-01, 1.6250000e-01, 1.7200000e-03
7274, 2.0000000e-01, 1.6250000e-01, 1.7200000e-03
7275, 2.1250000e-01, 1.6250000e-01, 1.7200000e-03
7276, 2.2500000e-01, 1.6250000e-01, 1.7200000e-03
7277, 2.3750000e-01, 1.6250000e-01, 1.7200000e-03
7278, 2.5000000e-01, 1.6250000e-01, 1.7200000e-03
7279, 2.6250000e-01, 1.6250000e-01, 1.7200000e-03
7280, 2.7500000e-01, 1.6250000e-01, 1.7200000e-03
7281, 2.8750000e-01, 1.6250000e-01, 1.7200000e-03
7282, 3.0000000e-01, 1.6250000e-01, 1.7200000e-03
7283, 3.1250000e-01, 1.6250000e-01, 1.7200000e-03
7284, 3.2500000e-01, 1.6250000e-01, 1.7200000e-03
7285, 3.3750000e-01, 1.6250000e-01, 1.7200000e-03
7286, 3.5000000e-01, 1.6250000e-01, 1.7200000e-03
7287, 3.6250000e-01, 1.6250000e-01, 1.7200000e-03
7288, 3.7500000e-01, 1.6250000e-01, 1.7200000e-03
7289, 3.8750000e-01, 1.6250000e-01, 1.7200000e-03
7290, 4.0000000e-01, 1.6250000e-01, 1.7200000e-03
7291, 4.1250000e-01, 1.6250000e-01, 1.7200000e-03
7292, 4.2500000e-01, 1.6250000e-01, 1.7200000e-03
7293, 4.3750000e-01, 1.6250000e-01, 1.7200000e-03
7294, 4.5000000e-01, 1.6250000e-01, 1.7200000e-03
7295, 4.6250000e-01, 1.6250000e-01, 1.7200000e-03
7296, 4.7500000e-01, 1.6250000e-01, 1.7200000e-03
7297, 4.8750000e-01, 1.6250000e-01, 1.7200000e-03
7298, 5.0000000e-01, 1.6250000e-01, 1.7200000e-03
7299, 0.0000000e+00, 1.7500000e-01, 1.7200000e-03
7300, 1.2500000e-02, 1.7500000e-01, 1.7200000e-03
7301, 2.5000000e-02, 1.7500000e-01, 1.7200000e-03
7302, 3.7500000e-02, 1.7500000e-01, 1.7200000e-03
7303, 5.0000000e-02, 1.7500000e-01, 1.7200000e-03
7304, 6.2500000e-02, 1.7500000e-01, 1.7200000e-03
7305, 7.5000000e-02, 1.7500000e-01, 1.7200000e-03
7306, 8.7500000e-02, 1.7500000e-01, 1.7200000e-03
7307, 1.0000000e-01, 1.7500000e-01, 1.7200000e-03
7308, 1.1250000e-01, 1.7500000e-01, 1.7200000e-03
7309, 1.2500000e-01, 1.7500000e-01, 1.7200000e-03
7310, 1.3750000e-01, 1.7500000e-01, 1.7200000e-03
7311, 1.5000000e-01, 1.7500000e-01, 1.7200000e-03
7312, 1.6250000e-01, 1.7500000e-01, 1.7200000e-03
7313, 1.7500000e-01, 1.7500000e-01, 1.7200000e-03
7314, 1.8750000e-01, 1.7500000e-01, 1.7200000e-03
7315, 2.0000000e-01, 1.7500000e-01, 1.7200000e-03
7316, 2.1250000e-01, 1.7500000e-01, 1.7200000e-03
7317, 2.2500000e-01, 1.7500000e-01, 1.7200000e-03
7318, 2.3750000e-01, 1.7500000e-01, 1.7200000e-03
7319, 2.5000000e-01, 1.7500000e-01, 1.7200000e-03
7320, 2.6250000e-01, 1.7500000e-01, 1.7200000e-03
7321, 2.7500000e-01, 1.7500000e-01, 1.7200000e-03
7322, 2.8750000e-01, 1.7500000e-01, 1.7200000e-03
7323, 3.0000000e-01, 1.7500000e-01, 1.7200000e-03
7324, 3.1250000e-01, 1.7500000e-01, 1.7200000e-03
7325, 3.2500000e-01, 1.7500000e-01, 1.7200000e-03
7326, 3.3750000e-01, 1.7500000e-01, 1.7200000e-03
7327, 3.5000000e-01, 1.7500000e-01, 1.7200000e-03
7328, 3.6250000e-01, 1.7500000e-01, 1.7200000e-03
7329, 3.7500000e-01, 1.7500000e-01, 1.7200000e-03
7330, 3.8750000e-01, 1.7500000e-01, 1.7200000e-03
7331, 4.0000000e-01, 1.7500000e-01, 1.7200000e-03
7332, 4.1250000e-01, 1.7500000e-01, 1.7200000e-03
7333, 4.2500000e-01, 1.7500000e-01, 1.7200000e-03
7334, 4.3750000e-01, 1.7500000e-01, 1.7200000e-03
7335, 4.5000000e-01, 1.7500000e-01, 1.7200000e-03
7336, 4.6250000e-01, 1.7500000e-01, 1.7200000e-03
7337, 4.7500000e-01, 1.7500000e-01, 1.7200000e-03
7338, 4.8750000e-01, 1.7500000e-01, 1.7200000e-03
7339, 5.0000000e-01, 1.7500000e-01, 1.7200000e-03
7340, 0.0000000e+00, 1.8750000e-01, 1.7200000e-03
7341, 1.2500000e-02, 1.8750000e-01, 1.7200000e-03
7342, 2.5000000e-02, 1.8750000e-01, 1.7200000e-03
7343, 3.7500000e-02, 1.8750000e-01, 1.7200000e-03
7344, 5.0000000e-02, 1.8750000e-01, 1.7200000e-03
7345, 6.2500000e-02, 1.8750000e-01, 1.7200000e-03
7346, 7.5000000e-02, 1.8750000e-01, 1.7200000e-03
7347, 8.7500000e-02, 1.8750000e-01, 1.7200000e-03
7348, 1.0000000e-01, 1.8750000e-01, 1.7200000e-03
7349, 1.1250000e-01, 1.8750000e-01, 1.7200000e-03
7350, 1.2500000e-01, 1.8750000e-01, 1.7200000e-03
7351, 1.3750000e-01, 1.8750000e-01, 1.7200000e-03
7352, 1.5000000e-01, 1.8750000e-01, 1.7200000e-03
7353, 1.6250000e-01, 1.8750000e-01, 1.7200000e-03
7354, 1.7500000e-01, 1.8750000e-01, 1.7200000e-03
7355, 1.8750000e-01, 1.8750000e-01, 1.7200000e-03
7356, 2.0000000e-01, 1.8750000e-01, 1.7200000e-03
7357, 2.1250000e-01, 1.8750000e-01, 1.7200000e-03
7358, 2.2500000e-01, 1.8750000e-01, 1.7200000e-03
7359, 2.3750000e-01, 1.8750000e-01, 1.7200000e-03
7360, 2.5000000e-01, 1.8750000e-01, 1.7200000e-03
7361, 2.6250000e-01, 1.8750000e-01, 1.7200000e-03
7362, 2.7500000e-01, 1.8750000e-01, 1.7200000e-03
7363, 2.8750000e-01, 1.8750000e-01, 1.7200000e-03
7364, 3.0000000e-01, 1.8750000e-01, 1.7200000e-03
7365, 3.1250000e-01, 1.8750000e-01, 1.7200000e-03
7366, 3.2500000e-01, 1.8750000e-01, 1.7200000e-03
7367, 3.3750000e-01, 1.8750000e-01, 1.7200000e-03
7368, 3.5000000e-01, 1.8750000e-01, 1.7200000e-03
7369, 3.6250000e-01, 1.8750000e-01, 1.7200000e-03
7370, 3.7500000e-01, 1.8750000e-01, 1.7200000e-03
7371, 3.8750000e-01, 1.8750000e-01, 1.7200000e-03
7372, 4.0000000e-01, 1.8750000e-01, 1.7200000e-03
7373, 4.1250000e-01, 1.8750000e-01, 1.7200000e-03
7374, 4.2500000e-01, 1.8750000e-01, 1.7200000e-03
7375, 4.3750000e-01, 1.8750000e-01, 1.7200000e-03
7376, 4.5000000e-01, 1.8750000e-01, 1.7200000e-03
7377, 4.6250000e-01, 1.8750000e-01, 1.7200000e-03
7378, 4.7500000e-01, 1.8750000e-01, 1.7200000e-03
7379, 4.8750000e-01, 1.8750000e-01, 1.7200000e-03
7380, 5.0000000e-01, 1.8750000e-01, 1.7200000e-03
7381, 0.0000000e+00, 2.0000000e-01, 1.7200000e-03
7382, 1.2500000e-02, 2.0000000e-01, 1.7200000e-03
7383, 2.5000000e-02, 2.0000000e-01, 1.7200000e-03
7384, 3.7500000e-02, 2.0000000e-01, 1.7200000e-03
7385, 5.0000000e-02, 2.0000000e-01, 1.7200000e-03
7386, 6.2500000e-02, 2.0000000e-01, 1.7200000e-03
7387, 7.5000000e-02, 2.0000000e-01, 1.7200000e-03
7388, 8.7500000e-02, 2.0000000e-01, 1.7200000e-03
7389, 1.0000000e-01, 2.0000000e-01, 1.7200000e-03
7390, 1.1250000e-01, 2.0000000e-01, 1.7200000e-03
7391, 1.2500000e-01, 2.0000000e-01, 1.7200000e-03
7392, 1.3750000e-01, 2.0000000e-01, 1.7200000e-03
7393, 1.5000000e-01, 2.0000000e-01, 1.7200000e-03
7394, 1.6250000e-01, 2.0000000e-01, 1.7200000e-03
7395, 1.7500000e-01, 2.0000000e-01, 1.7200000e-03
7396, 1.8750000e-01, 2.0000000e-01, 1.7200000e-03
7397, 2.0000000e-01, 2.0000000e-01, 1.7200000e-03
7398, 2.1250000e-01, 2.0000000e-01, 1.7200000e-03
7399, 2.2500000e-01, 2.0000000e-01, 1.7200000e-03
7400, 2.3750000e-01, 2.0000000e-01, 1.7200000e-03
7401, 2.5000000e-01, 2.0000000e-01, 1.7200000e-03
7402, 2.6250000e-01, 2.0000000e-01, 1.7200000e-03
7403, 2.7500000e-01, 2.0000000e-01, 1.7200000e-03
7404, 2.8750000e-01, 2.0000000e-01, 1.7200000e-03
7405, 3.0000000e-01, 2.0000000e-01, 1.7200000e-03
7406, 3.1250000e-01, 2.0000000e-01, 1.7200000e-03
7407, 3.2500000e-01, 2.0000000e-01, 1.7200000e-03
7408, 3.3750000e-01, 2.0000000e-01, 1.7200000e-03
7409, 3.5000000e-01, 2.0000000e-01, 1.7200000e-03
7410, 3.6250000e-01, 2.0000000e-01, 1.7200000e-03
7411, 3.7500000e-01, 2.0000000e-01, 1.7200000e-03
7412, 3.8750000e-01, 2.0000000e-01, 1.7200000e-03
7413, 4.0000000e-01, 2.0000000e-01, 1.7200000e-03
7414, 4.1250000e-01, 2.0000000e-01, 1.7200000e-03
7415, 4.2500000e-01, 2.0000000e-01, 1.7200000e-03
7416, 4.3750000e-01, 2.0000000e-01, 1.7200000e-03
7417, 4.5000000e-01, 2.0000000e-01, 1.7200000e-03
7418, 4.6250000e-01, 2.0000000e-01, 1.7200000e-03
7419, 4.7500000e-01, 2.0000000e-01, 1.7200000e-03
7420, 4.8750000e-01, 2.0000000e-01, 1.7200000e-03
7421, 5.0000000e-01, 2.0000000e-01, 1.7200000e-03
7422, 0.0000000e+00, 2.1250000e-01, 1.7200000e-03
7423, 1.2500000e-02, 2.1250000e-01, 1.7200000e-03
7424, 2.5000000e-02, 2.1250000e-01, 1.7200000e-03
7425, 3.7500000e-02, 2.1250000e-01, 1.7200000e-03
7426, 5.0000000e-02, 2.1250000e-01, 1.7200000e-03
7427, 6.2500000e-02, 2.1250000e-01, 1.7200000e-03
7428, 7.5000000e-02, 2.1250000e-01, 1.7200000e-03
7429, 8.7500000e-02, 2.1250000e-01, 1.7200000e-03
7430, 1.0000000e-01, 2.1250000e-01, 1.7200000e-03
7431, 1.1250000e-01, 2.1250000e-01, 1.7200000e-03
7432, 1.2500000e-01, 2.1250000e-01, 1.7200000e-03
7433, 1.3750000e-01, 2.1250000e-01, 1.7200000e-03
7434, 1.5000000e-01, 2.1250000e-01, 1.7200000e-03
7435, 1.6250000e-01, 2.1250000e-01, 1.7200000e-03
7436, 1.7500000e-01, 2.1250000e-01, 1.7200000e-03
7437, 1.8750000e-01, 2.1250000e-01, 1.7200000e-03
7438, 2.0000000e-01, 2.1250000e-01, 1.7200000e-03
7439, 2.1250000e-01, 2.1250000e-01, 1.7200000e-03
7440, 2.2500000e-01, 2.1250000e-01, 1.7200000e-03
7441, 2.3750000e-01, 2.1250000e-01, 1.7200000e-03
7442, 2.5000000e-01, 2.1250000e-01, 1.7200000e-03
7443, 2.6250000e-01, 2.1250000e-01, 1.7200000e-03
7444, 2.7500000e-01, 2.1250000e-01, 1.7200000e-03
7445, 2.8750000e-01, 2.1250000e-01, 1.7200000e-03
7446, 3.0000000e-01, 2.1250000e-01, 1.7200000e-03
7447, 3.1250000e-01, 2.1250000e-01, 1.7200000e-03
7448, 3.2500000e-01, 2.1250000e-01, 1.7200000e-03
7449, 3.3750000e-01, 2.1250000e-01, 1.7200000e-03
7450, 3.5000000e-01, 2.1250000e-01, 1.7200000e-03
7451, 3.6250000e-01, 2.1250000e-01, 1.7200000e-03
7452, 3.7500000e-01, 2.1250000e-01, 1.7200000e-03
7453, 3.8750000e-01, 2.1250000e-01, 1.7200000e-03
7454, 4.0000000e-01, 2.1250000e-01, 1.7200000e-03
7455, 4.1250000e-01, 2.1250000e-01, 1.7200000e-03
7456, 4.2500000e-01, 2.1250000e-01, 1.7200000e-03
7457, 4.3750000e-01, 2.1250000e-01, 1.7200000e-03
7458, 4.5000000e-01, 2.1250000e-01, 1.7200000e-03
7459, 4.6250000e-01, 2.1250000e-01, 1.7200000e-03
7460, 4.7500000e-01, 2.1250000e-01, 1.7200000e-03
7461, 4.8750000e-01, 2.1250000e-01, 1.7200000e-03
7462, 5.0000000e-01, 2.1250000e-01, 1.7200000e-03
7463, 0.0000000e+00, 2.2500000e-01, 1.7200000e-03
7464, 1.2500000e-02, 2.2500000e-01, 1.7200000e-03
7465, 2.5000000e-02, 2.2500000e-01, 1.7200000e-03
7466, 3.7500000e-02, 2.2500000e-01, 1.7200000e-03
7467, 5.0000000e-02, 2.2500000e-01, 1.7200000e-03
7468, 6.2500000e-02, 2.2500000e-01, 1.7200000e-03
7469, 7.5000000e-02, 2.2500000e-01, 1.7200000e-03
7470, 8.7500000e-02, 2.2500000e-01, 1.7200000e-03
7471, 1.0000000e-01, 2.2500000e-01, 1.7200000e-03
7472, 1.1250000e-01, 2.2500000e-01, 1.7200000e-03
7473, 1.2500000e-01, 2.2500000e-01, 1.7200000e-03
7474, 1.3750000e-01, 2.2500000e-01, 1.7200000e-03
7475, 1.5000000e-01, 2.2500000e-01, 1.7200000e-03
7476, 1.6250000e-01, 2.2500000e-01, 1.7200000e-03
7477, 1.7500000e-01, 2.2500000e-01, 1.7200000e-03
7478, 1.8750000e-01, 2.2500000e-01, 1.7200000e-03
7479, 2.0000000e-01, 2.2500000e-01, 1.7200000e-03
7480, 2.1250000e-01, 2.2500000e-01, 1.7200000e-03
7481, 2.2500000e-01, 2.2500000e-01, 1.7200000e-03
7482, 2.3750000e-01, 2.2500000e-01, 1.7200000e-03
7483, 2.5000000e-01, 2.2500000e-01, 1.7200000e-03
7484, 2.6250000e-01, 2.2500000e-01, 1.7200000e-03
7485, 2.7500000e-01, 2.2500000e-01, 1.7200000e-03
7486, 2.8750000e-01, 2.2500000e-01, 1.7200000e-03
7487, 3.0000000e-01, 2.2500000e-01, 1.7200000e-03
7488, 3.1250000e-01, 2.2500000e-01, 1.7200000e-03
7489, 3.2500000e-01, 2.2500000e-01, 1.7200000e-03
7490, 3.3750000e-01, 2.2500000e-01, 1.7200000e-03
7491, 3.5000000e-01, 2.2500000e-01, 1.7200000e-03
7492, 3.6250000e-01, 2.2500000e-01, 1.7200000e-03
7493, 3.7500000e-01, 2.2500000e-01, 1.7200000e-03
7494, 3.8750000e-01, 2.2500000e-01, 1.7200000e-03
7495, 4.0000000e-01, 2.2500000e-01, 1.7200000e-03
7496, 4.1250000e-01, 2.2500000e-01, 1.7200000e-03
7497, 4.2500000e-01, 2.2500000e-01, 1.7200000e-03
7498, 4.3750000e-01, 2.2500000e-01, 1.7200000e-03
7499, 4.5000000e-01, 2.2500000e-01, 1.7200000e-03
7500, 4.6250000e-01, 2.2500000e-01, 1.7200000e-03
7501, 4.7500000e-01, 2.2500000e-01, 1.7200000e-03
7502, 4.8750000e-01, 2.2500000e-01, 1.7200000e-03
7503, 5.0000000e-01, 2.2500000e-01, 1.7200000e-03
7504, 0.0000000e+00, 2.3750000e-01, 1.7200000e-03
7505, 1.2500000e-02, 2.3750000e-01, 1.7200000e-03
7506, 2.5000000e-02, 2.3750000e-01, 1.7200000e-03
7507, 3.7500000e-02, 2.3750000e-01, 1.7200000e-03
7508, 5.0000000e-02, 2.3750000e-01, 1.7200000e-03
7509, 6.2500000e-02, 2.3750000e-01, 1.7200000e-03
7510, 7.5000000e-02, 2.3750000e-01, 1.7200000e-03
7511, 8.7500000e-02, 2.3750000e-01, 1.7200000e-03
7512, 1.0000000e-01, 2.3750000e-01, 1.7200000e-03
7513, 1.1250000e-01, 2.3750000e-01, 1.7200000e-03
7514, 1.2500000e-01, 2.3750000e-01, 1.7200000e-03
7515, 1.3750000e-01, 2.3750000e-01, 1.7200000e-03
7516, 1.5000000e-01, 2.3750000e-01, 1.7200000e-03
7517, 1.6250000e-01, 2.3750000e-01, 1.7200000e-03
7518, 1.7500000e-01, 2.3750000e-01, 1.7200000e-03
7519, 1.8750000e-01, 2.3750000e-01, 1.7200000e-03
7520, 2.0000000e-01, 2.3750000e-01, 1.7200000e-03
7521, 2.1250000e-01, 2.3750000e-01, 1.7200000e-03
7522, 2.2500000e-01, 2.3750000e-01, 1.7200000e-03
7523, 2.3750000e-01, 2.3750000e-01, 1.7200000e-03
7524, 2.5000000e-01, 2.3750000e-01, 1.7200000e-03
7525, 2.6250000e-01, 2.3750000e-01, 1.7200000e-03
7526, 2.7500000e-01, 2.3750000e-01, 1.7200000e-03
7527, 2.8750000e-01, 2.3750000e-01, 1.7200000e-03
7528, 3.0000000e-01, 2.3750000e-01, 1.7200000e-03
7529, 3.1250000e-01, 2.3750000e-01, 1.7200000e-03
7530, 3.2500000e-01, 2.3750000e-01, 1.7200000e-03
7531, 3.3750000e-01, 2.3750000e-01, 1.7200000e-03
7532, 3.5000000e-01, 2.3750000e-01, 1.7200000e-03
7533, 3.6250000e-01, 2.3750000e-01, 1.7200000e-03
7534, 3.7500000e-01, 2.3750000e-01, 1.7200000e-03
7535, 3.8750000e-01, 2.3750000e-01, 1.7200000e-03
7536, 4.0000000e-01, 2.3750000e-01, 1.7200000e-03
7537, 4.1250000e-01, 2.3750000e-01, 1.7200000e-03
7538, 4.2500000e-01, 2.3750000e-01, 1.7200000e-03
7539, 4.3750000e-01, 2.3750000e-01, 1.7200000e-03
7540, 4.5000000e-01, 2.3750000e-01, 1.7200000e-03
7541, 4.6250000e-01, 2.3750000e-01, 1.7200000e-03
7542, 4.7500000e-01, 2.3750000e-01, 1.7200000e-03
7543, 4.8750000e-01, 2.3750000e-01, 1.7200000e-03
7544, 5.0000000e-01, 2.3750000e-01, 1.7200000e-03
7545, 0.0000000e+00, 2.5000000e-01, 1.7200000e-03
7546, 1.2500000e-02, 2.5000000e-01, 1.7200000e-03
7547, 2.5000000e-02, 2.5000000e-01, 1.7200000e-03
7548, 3.7500000e-02, 2.5000000e-01, 1.7200000e-03
7549, 5.0000000e-02, 2.5000000e-01, 1.7200000e-03
7550, 6.2500000e-02, 2.5000000e-01, 1.7200000e-03
7551, 7.5000000e-02, 2.5000000e-01, 1.7200000e-03
7552, 8.7500000e-02, 2.5000000e-01, 1.7200000e-03
7553, 1.0000000e-01, 2.5000000e-01, 1.7200000e-03
7554, 1.1250000e-01, 2.5000000e-01, 1.7200000e-03
7555, 1.2500000e-01, 2.5000000e-01, 1.7200000e-03
7556, 1.3750000e-01, 2.5000000e-01, 1.7200000e-03
7557, 1.5000000e-01, 2.5000000e-01, 1.7200000e-03
7558, 1.6250000e-01, 2.5000000e-01, 1.7200000e-03
7559, 1.7500000e-01, 2.5000000e-01, 1.7200000e-03
7560, 1.8750000e-01, 2.5000000e-01, 1.7200000e-03
7561, 2.0000000e-01, 2.5000000e-01, 1.7200000e-03
7562, 2.1250000e-01, 2.5000000e-01, 1.7200000e-03
7563, 2.2500000e-01, 2.5000000e-01, 1.7200000e-03
7564, 2.3750000e-01, 2.5000000e-01, 1.7200000e-03
7565, 2.5000000e-01, 2.5000000e-01, 1.7200000e-03
7566, 2.6250000e-01, 2.5000000e-01, 1.7200000e-03
7567, 2.7500000e-01, 2.5000000e-01, 1.7200000e-03
7568, 2.8750000e-01, 2.5000000e-01, 1.7200000e-03
7569, 3.0000000e-01, 2.5000000e-01, 1.7200000e-03
7570, 3.1250000e-01, 2.5000000e-01, 1.7200000e-03
7571, 3.2500000e-01, 2.5000000e-01, 1.7200000e-03
7572, 3.3750000e-01, 2.5000000e-01, 1.7200000e-03
7573, 3.5000000e-01, 2.5000000e-01, 1.7200000e-03
7574, 3.6250000e-01, 2.5000000e-01, 1.7200000e-03
7575, 3.7500000e-01, 2.5000000e-01, 1.7200000e-03
7576, 3.8750000e-01, 2.5000000e-01, 1.7200000e-03
7577, 4.0000000e-01, 2.5000000e-01, 1.7200000e-03
7578, 4.1250000e-01, 2.5000000e-01, 1.7200000e-03
7579, 4.2500000e-01, 2.5000000e-01, 1.7200000e-03
7580, 4.3750000e-01, 2.5000000e-01, 1.7200000e-03
7581, 4.5000000e-01, 2.5000000e-01, 1.7200000e-03
7582, 4.6250000e-01, 2.5000000e-01, 1.7200000e-03
7583, 4.7500000e-01, 2.5000000e-01, 1.7200000e-03
7584, 4.8750000e-01, 2.5000000e-01, 1.7200000e-03
7585, 5.0000000e-01, 2.5000000e-01, 1.7200000e-03
7586, 0.0000000e+00, 2.6250000e-01, 1.7200000e-03
7587, 1.2500000e-02, 2.6250000e-01, 1.7200000e-03
7588, 2.5000000e-02, 2.6250000e-01, 1.7200000e-03
7589, 3.7500000e-02, 2.6250000e-01, 1.7200000e-03
7590, 5.0000000e-02, 2.6250000e-01, 1.7200000e-03
7591, 6.2500000e-02, 2.6250000e-01, 1.7200000e-03
7592, 7.5000000e-02, 2.6250000e-01, 1.7200000e-03
7593, 8.7500000e-02, 2.6250000e-01, 1.7200000e-03
7594, 1.0000000e-01, 2.6250000e-01, 1.7200000e-03
7595, 1.1250000e-01, 2.6250000e-01, 1.7200000e-03
7596, 1.2500000e-01, 2.6250000e-01, 1.7200000e-03
7597, 1.3750000e-01, 2.6250000e-01, 1.7200000e-03
7598, 1.5000000e-01, 2.6250000e-01, 1.7200000e-03
7599, 1.6250000e-01, 2.6250000e-01, 1.7200000e-03
7600, 1.7500000e-01, 2.6250000e-01, 1.7200000e-03
7601, 1.8750000e-01, 2.6250000e-01, 1.7200000e-03
7602, 2.0000000e-01, 2.6250000e-01, 1.7200000e-03
7603, 2.1250000e-01, 2.6250000e-01, 1.7200000e-03
7604, 2.2500000e-01, 2.6250000e-01, 1.7200000e-03
7605, 2.3750000e-01, 2.6250000e-01, 1.7200000e-03
7606, 2.5000000e-01, 2.6250000e-01, 1.7200000e-03
7607, 2.6250000e-01, 2.6250000e-01, 1.7200000e-03
7608, 2.7500000e-01, 2.6250000e-01, 1.7200000e-03
7609, 2.8750000e-01, 2.6250000e-01, 1.7200000e-03
7610, 3.0000000e-01, 2.6250000e-01, 1.7200000e-03
7611, 3.1250000e-01, 2.6250000e-01, 1.7200000e-03
7612, 3.2500000e-01, 2.6250000e-01, 1.7200000e-03
7613, 3.3750000e-01, 2.6250000e-01, 1.7200000e-03
7614, 3.5000000e-01, 2.6250000e-01, 1.7200000e-03
7615, 3.6250000e-01, 2.6250000e-01, 1.7200000e-03
7616, 3.7500000e-01, 2.6250000e-01, 1.7200000e-03
7617, 3.8750000e-01, 2.6250000e-01, 1.7200000e-03
7618, 4.0000000e-01, 2.6250000e-01, 1.7200000e-03
7619, 4.1250000e-01, 2.6250000e-01, 1.7200000e-03
7620, 4.2500000e-01, 2.6250000e-01, 1.7200000e-03
7621, 4.3750000e-01, 2.6250000e-01, 1.7200000e-03
7622, 4.5000000e-01, 2.6250000e-01, 1.7200000e-03
7623, 4.6250000e-01, 2.6250000e-01, 1.7200000e-03
7624, 4.7500000e-01, 2.6250000e-01, 1.7200000e-03
7625, 4.8750000e-01, 2.6250000e-01, 1.7200000e-03
7626, 5.0000000e-01, 2.6250000e-01, 1.7200000e-03
7627, 0.0000000e+00, 2.7500000e-01, 1.7200000e-03
7628, 1.2500000e-02, 2.7500000e-01, 1.7200000e-03
7629, 2.5000000e-02, 2.7500000e-01, 1.7200000e-03
7630, 3.7500000e-02, 2.7500000e-01, 1.7200000e-03
7631, 5.0000000e-02, 2.7500000e-01, 1.7200000e-03
7632, 6.2500000e-02, 2.7500000e-01, 1.7200000e-03
7633, 7.5000000e-02, 2.7500000e-01, 1.7200000e-03
7634, 8.7500000e-02, 2.7500000e-01, 1.7200000e-03
7635, 1.0000000e-01, 2.7500000e-01, 1.7200000e-03
7636, 1.1250000e-01, 2.7500000e-01, 1.7200000e-03
7637, 1.2500000e-01, 2.7500000e-01, 1.7200000e-03
7638, 1.3750000e-01, 2.7500000e-01, 1.7200000e-03
7639, 1.5000000e-01, 2.7500000e-01, 1.7200000e-03
7640, 1.6250000e-01, 2.7500000e-01, 1.7200000e-03
7641, 1.7500000e-01, 2.7500000e-01, 1.7200000e-03
7642, 1.8750000e-01, 2.7500000e-01, 1.7200000e-03
7643, 2.0000000e-01, 2.7500000e-01, 1.7200000e-03
7644, 2.1250000e-01, 2.7500000e-01, 1.7200000e-03
7645, 2.2500000e-01, 2.7500000e-01, 1.7200000e-03
7646, 2.3750000e-01, 2.7500000e-01, 1.7200000e-03
7647, 2.5000000e-01, 2.7500000e-01, 1.7200000e-03
7648, 2.6250000e-01, 2.7500000e-01, 1.7200000e-03
7649, 2.7500000e-01, 2.7500000e-01, 1.7200000e-03
7650, 2.8750000e-01, 2.7500000e-01, 1.7200000e-03
7651, 3.0000000e-01, 2.7500000e-01, 1.7200000e-03
7652, 3.1250000e-01, 2.7500000e-01, 1.7200000e-03
7653, 3.2500000e-01, 2.7500000e-01, 1.7200000e-03
7654, 3.3750000e-01, 2.7500000e-01, 1.7200000e-03
7655, 3.5000000e-01, 2.7500000e-01, 1.7200000e-03
7656, 3.6250000e-01, 2.7500000e-01, 1.7200000e-03
7657, 3.7500000e-01, 2.7500000e-01, 1.7200000e-03
7658, 3.8750000e-01, 2.7500000e-01, 1.7200000e-03
7659, 4.0000000e-01, 2.7500000e-01, 1.7200000e-03
7660, 4.1250000e-01, 2.7500000e-01, 1.7200000e-03
7661, 4.2500000e-01, 2.7500000e-01, 1.7200000e-03
7662, 4.3750000e-01, 2.7500000e-01, 1.7200000e-03
7663, 4.5000000e-01, 2.7500000e-01, 1.7200000e-03
7664, 4.6250000e-01, 2.7500000e-01, 1.7200000e-03
7665, 4.7500000e-01, 2.7500000e-01, 1.7200000e-03
7666, 4.8750000e-01, 2.7500000e-01, 1.7200000e-03
7667, 5.0000000e-01, 2.7500000e-01, 1.7200000e-03
7668, 0.0000000e+00, 2.8750000e-01, 1.7200000e-03
7669, 1.2500000e-02, 2.8750000e-01, 1.7200000e-03
7670, 2.5000000e-02, 2.8750000e-01, 1.7200000e-03
7671, 3.7500000e-02, 2.8750000e-01, 1.7200000e-03
7672, 5.0000000e-02, 2.8750000e-01, 1.7200000e-03
7673, 6.2500000e-02, 2.8750000e-01, 1.7200000e-03
7674, 7.5000000e-02, 2.8750000e-01, 1.7200000e-03
7675, 8.7500000e-02, 2.8750000e-01, 1.7200000e-03
7676, 1.0000000e-01, 2.8750000e-01, 1.7200000e-03
7677, 1.1250000e-01, 2.8750000e-01, 1.7200000e-03
7678, 1.2500000e-01, 2.8750000e-01, 1.7200000e-03
7679, 1.3750000e-01, 2.8750000e-01, 1.7200000e-03
7680, 1.5000000e-01, 2.8750000e-01, 1.7200000e-03
7681, 1.6250000e-01, 2.8750000e-01, 1.7200000e-03
7682, 1.7500000e-01, 2.8750000e-01, 1.7200000e-03
7683, 1.8750000e-01, 2.8750000e-01, 1.7200000e-03
7684, 2.0000000e-01, 2.8750000e-01, 1.7200000e-03
7685, 2.1250000e-01, 2.8750000e-01, 1.7200000e-03
7686, 2.2500000e-01, 2.8750000e-01, 1.7200000e-03
7687, 2.3750000e-01, 2.8750000e-01, 1.7200000e-03
7688, 2.5000000e-01, 2.8750000e-01, 1.7200000e-03
7689, 2.6250000e-01, 2.8750000e-01, 1.7200000e-03
7690, 2.7500000e-01, 2.8750000e-01, 1.7200000e-03
7691, 2.8750000e-01, 2.8750000e-01, 1.7200000e-03
7692, 3.0000000e-01, 2.8750000e-01, 1.7200000e-03
7693, 3.1250000e-01, 2.8750000e-01, 1.7200000e-03
7694, 3.2500000e-01, 2.8750000e-01, 1.7200000e-03
7695, 3.3750000e-01, 2.8750000e-01, 1.7200000e-03
7696, 3.5000000e-01, 2.8750000e-01, 1.7200000e-03
7697, 3.6250000e-01, 2.8750000e-01, 1.7200000e-03
7698, 3.7500000e-01, 2.8750000e-01, 1.7200000e-03
7699, 3.8750000e-01, 2.8750000e-01, 1.7200000e-03
7700, 4.0000000e-01, 2.8750000e-01, 1.7200000e-03
7701, 4.1250000e-01, 2.8750000e-01, 1.7200000e-03
7702, 4.2500000e-01, 2.8750000e-01, 1.7200000e-03
7703, 4.3750000e-01, 2.8750000e-01, 1.7200000e-03
7704, 4.5000000e-01, 2.8750000e-01, 1.7200000e-03
7705, 4.6250000e-01, 2.8750000e-01, 1.7200000e-03
7706, 4.7500000e-01, 2.8750000e-01, 1.7200000e-03
7707, 4.8750000e-01, 2.8750000e-01, 1.7200000e-03
7708, 5.0000000e-01, 2.8750000e-01, 1.7200000e-03
7709, 0.0000000e+00, 3.0000000e-01, 1.7200000e-03
7710, 1.2500000e-02, 3.0000000e-01, 1.7200000e-03
7711, 2.5000000e-02, 3.0000000e-01, 1.7200000e-03
7712, 3.7500000e-02, 3.0000000e-01, 1.7200000e-03
7713, 5.0000000e-02, 3.0000000e-01, 1.7200000e-03
7714, 6.2500000e-02, 3.0000000e-01, 1.7200000e-03
7715, 7.5000000e-02, 3.0000000e-01, 1.7200000e-03
7716, 8.7500000e-02, 3.0000000e-01, 1.7200000e-03
7717, 1.0000000e-01, 3.0000000e-01, 1.7200000e-03
7718, 1.1250000e-01, 3.0000000e-01, 1.7200000e-03
7719, 1.2500000e-01, 3.0000000e-01, 1.7200000e-03
7720, 1.3750000e-01, 3.0000000e-01, 1.7200000e-03
7721, 1.5000000e-01, 3.0000000e-01, 1.7200000e-03
7722, 1.6250000e-01, 3.0000000e-01, 1.7200000e-03
7723, 1.7500000e-01, 3.0000000e-01, 1.7200000e-03
7724, 1.8750000e-01, 3.0000000e-01, 1.7200000e-03
7725, 2.0000000e-01, 3.0000000e-01, 1.7200000e-03
7726, 2.1250000e-01, 3.0000000e-01, 1.7200000e-03
7727, 2.2500000e-01, 3.0000000e-01, 1.7200000e-03
7728, 2.3750000e-01, 3.0000000e-01, 1.7200000e-03
7729, 2.5000000e-01, 3.0000000e-01, 1.7200000e-03
7730, 2.6250000e-01, 3.0000000e-01, 1.7200000e-03
7731, 2.7500000e-01, 3.0000000e-01, 1.7200000e-03
7732, 2.8750000e-01, 3.0000000e-01, 1.7200000e-03
7733, 3.0000000e-01, 3.0000000e-01, 1.7200000e-03
7734, 3.1250000e-01, 3.0000000e-01, 1.7200000e-03
7735, 3.2500000e-01, 3.0000000e-01, 1.7200000e-03
7736, 3.3750000e-01, 3.0000000e-01, 1.7200000e-03
7737, 3.5000000e-01, 3.0000000e-01, 1.7200000e-03
7738, 3.6250000e-01, 3.0000000e-01, 1.7200000e-03
7739, 3.7500000e-01, 3.0000000e-01, 1.7200000e-03
7740, 3.8750000e-01, 3.0000000e-01, 1.7200000e-03
7741, 4.0000000e-01, 3.0000000e-01, 1.7200000e-03
7742, 4.1250000e-01, 3.0000000e-01, 1.7200000e-03
7743, 4.2500000e-01, 3.0000000e-01, 1.7200000e-03
7744, 4.3750000e-01, 3.0000000e-01, 1.7200000e-03
7745, 4.5000000e-01, 3.0000000e-01, 1.7200000e-03
7746, 4.6250000e-01, 3.0000000e-01, 1.7200000e-03
7747, 4.7500000e-01, 3.0000000e-01, 1.7200000e-03
7748, 4.8750000e-01, 3.0000000e-01, 1.7200000e-03
7749, 5.0000000e-01, 3.0000000e-01, 1.7200000e-03
7750, 0.0000000e+00, 3.1250000e-01, 1.7200000e-03
7751, 1.2500000e-02, 3.1250000e-01, 1.7200000e-03
7752, 2.5000000e-02, 3.1250000e-01, 1.7200000e-03
7753, 3.7500000e-02, 3.1250000e-01, 1.7200000e-03
7754, 5.0000000e-02, 3.1250000e-01, 1.7200000e-03
7755, 6.2500000e-02, 3.1250000e-01, 1.7200000e-03
7756, 7.5000000e-02, 3.1250000e-01, 1.7200000e-03
7757, 8.7500000e-02, 3.1250000e-01, 1.7200000e-03
7758, 1.0000000e-01, 3.1250000e-01, 1.7200000e-03
7759, 1.1250000e-01, 3.1250000e-01, 1.7200000e-03
7760, 1.2500000e-01, 3.1250000e-01, 1.7200000e-03
7761, 1.3750000e-01, 3.1250000e-01, 1.7200000e-03
7762, 1.5000000e-01, 3.1250000e-01, 1.7200000e-03
7763, 1.6250000e-01, 3.1250000e-01, 1.7200000e-03
7764, 1.7500000e-01, 3.1250000e-01, 1.7200000e-03
7765, 1.8750000e-01, 3.1250000e-01, 1.7200000e-03
7766, 2.0000000e-01, 3.1250000e-01, 1.7200000e-03
7767, 2.1250000e-01, 3.1250000e-01, 1.7200000e-03
7768, 2.2500000e-01, 3.1250000e-01, 1.7200000e-03
7769, 2.3750000e-01, 3.1250000e-01, 1.7200000e-03
7770, 2.5000000e-01, 3.1250000e-01, 1.7200000e-03
7771, 2.6250000e-01, 3.1250000e-01, 1.7200000e-03
7772, 2.7500000e-01, 3.1250000e-01, 1.7200000e-03
7773, 2.8750000e-01, 3.1250000e-01, 1.7200000e-03
7774, 3.0000000e-01, 3.1250000e-01, 1.7200000e-03
7775, 3.1250000e-01, 3.1250000e-01, 1.7200000e-03
7776, 3.2500000e-01, 3.1250000e-01, 1.7200000e-03
7777, 3.3750000e-01, 3.1250000e-01, 1.7200000e-03
7778, 3.5000000e-01, 3.1250000e-01, 1.7200000e-03
7779, 3.6250000e-01, 3.1250000e-01, 1.7200000e-03
7780, 3.7500000e-01, 3.1250000e-01, 1.7200000e-03
7781, 3.8750000e-01, 3.1250000e-01, 1.7200000e-03
7782, 4.0000000e-01, 3.1250000e-01, 1.7200000e-03
7783, 4.1250000e-01, 3.1250000e-01, 1.7200000e-03
7784, 4.2500000e-01, 3.1250000e-01, 1.7200000e-03
7785, 4.3750000e-01, 3.1250000e-01, 1.7200000e-03
7786, 4.5000000e-01, 3.1250000e-01, 1.7200000e-03
7787, 4.6250000e-01, 3.1250000e-01, 1.7200000e-03
7788, 4.7500000e-01, 3.1250000e-01, 1.7200000e-03
7789, 4.8750000e-01, 3.1250000e-01, 1.7200000e-03
7790, 5.0000000e-01, 3.1250000e-01, 1.7200000e-03
7791, 0.0000000e+00, 3.2500000e-01, 1.7200000e-03
7792, 1.2500000e-02, 3.2500000e-01, 1.7200000e-03
7793, 2.5000000e-02, 3.2500000e-01, 1.7200000e-03
7794, 3.7500000e-02, 3.2500000e-01, 1.7200000e-03
7795, 5.0000000e-02, 3.2500000e-01, 1.7200000e-03
7796, 6.2500000e-02, 3.2500000e-01, 1.7200000e-03
7797, 7.5000000e-02, 3.2500000e-01, 1.7200000e-03
7798, 8.7500000e-02, 3.2500000e-01, 1.7200000e-03
7799, 1.0000000e-01, 3.2500000e-01, 1.7200000e-03
7800, 1.1250000e-01, 3.2500000e-01, 1.7200000e-03
7801, 1.2500000e-01, 3.2500000e-01, 1.7200000e-03
7802, 1.3750000e-01, 3.2500000e-01, 1.7200000e-03
7803, 1.5000000e-01, 3.2500000e-01, 1.7200000e-03
7804, 1.6250000e-01, 3.2500000e-01, 1.7200000e-03
7805, 1.7500000e-01, 3.2500000e-01, 1.7200000e-03
7806, 1.8750000e-01, 3.2500000e-01, 1.7200000e-03
7807, 2.0000000e-01, 3.2500000e-01, 1.7200000e-03
7808, 2.1250000e-01, 3.2500000e-01, 1.7200000e-03
7809, 2.2500000e-01, 3.2500000e-01, 1.7200000e-03
7810, 2.3750000e-01, 3.2500000e-01, 1.7200000e-03
7811, 2.5000000e-01, 3.2500000e-01, 1.7200000e-03
7812, 2.6250000e-01, 3.2500000e-01, 1.7200000e-03
7813, 2.7500000e-01, 3.2500000e-01, 1.7200000e-03
7814, 2.8750000e-01, 3.2500000e-01, 1.7200000e-03
7815, 3.0000000e-01, 3.2500000e-01, 1.7200000e-03
7816, 3.1250000e-01, 3.2500000e-01, 1.7200000e-03
7817, 3.2500000e-01, 3.2500000e-01, 1.7200000e-03
7818, 3.3750000e-01, 3.2500000e-01, 1.7200000e-03
7819, 3.5000000e-01, 3.2500000e-01, 1.7200000e-03
7820, 3.6250000e-01, 3.2500000e-01, 1.7200000e-03
7821, 3.7500000e-01, 3.2500000e-01, 1.7200000e-03
7822, 3.8750000e-01, 3.2500000e-01, 1.7200000e-03
7823, 4.0000000e-01, 3.2500000e-01, 1.7200000e-03
7824, 4.1250000e-01, 3.2500000e-01, 1.7200000e-03
7825, 4.2500000e-01, 3.2500000e-01, 1.7200000e-03
7826, 4.3750000e-01, 3.2500000e-01, 1.7200000e-03
7827, 4.5000000e-01, 3.2500000e-01, 1.7200000e-03
7828, 4.6250000e-01, 3.2500000e-01, 1.7200000e-03
7829, 4.7500000e-01, 3.2500000e-01, 1.7200000e-03
7830, 4.8750000e-01, 3.2500000e-01, 1.7200000e-03
7831, 5.0000000e-01, 3.2500000e-01, 1.7200000e-03
7832, 0.0000000e+00, 3.3750000e-01, 1.7200000e-03
7833, 1.2500000e-02, 3.3750000e-01, 1.7200000e-03
7834, 2.5000000e-02, 3.3750000e-01, 1.7200000e-03
7835, 3.7500000e-02, 3.3750000e-01, 1.7200000e-03
7836, 5.0000000e-02, 3.3750000e-01, 1.7200000e-03
7837, 6.2500000e-02, 3.3750000e-01, 1.7200000e-03
7838, 7.5000000e-02, 3.3750000e-01, 1.7200000e-03
7839, 8.7500000e-02, 3.3750000e-01, 1.7200000e-03
7840, 1.0000000e-01, 3.3750000e-01, 1.7200000e-03
7841, 1.1250000e-01, 3.3750000e-01, 1.7200000e-03
7842, 1.2500000e-01, 3.3750000e-01, 1.7200000e-03
7843, 1.3750000e-01, 3.3750000e-01, 1.7200000e-03
7844, 1.5000000e-01, 3.3750000e-01, 1.7200000e-03
7845, 1.6250000e-01, 3.3750000e-01, 1.7200000e-03
7846, 1.7500000e-01, 3.3750000e-01, 1.7200000e-03
7847, 1.8750000e-01, 3.3750000e-01, 1.7200000e-03
7848, 2.0000000e-01, 3.3750000e-01, 1.7200000e-03
7849, 2.1250000e-01, 3.3750000e-01, 1.7200000e-03
7850, 2.2500000e-01, 3.3750000e-01, 1.7200000e-03
7851, 2.3750000e-01, 3.3750000e-01, 1.7200000e-03
7852, 2.5000000e-01, 3.3750000e-01, 1.7200000e-03
7853, 2.6250000e-01, 3.3750000e-01, 1.7200000e-03
7854, 2.7500000e-01, 3.3750000e-01, 1.7200000e-03
7855, 2.8750000e-01, 3.3750000e-01, 1.7200000e-03
7856, 3.0000000e-01, 3.3750000e-01, 1.7200000e-03
7857, 3.1250000e-01, 3.3750000e-01, 1.7200000e-03
7858, 3.2500000e-01, 3.3750000e-01, 1.7200000e-03
7859, 3.3750000e-01, 3.3750000e-01, 1.7200000e-03
7860, 3.5000000e-01, 3.3750000e-01, 1.7200000e-03
7861, 3.6250000e-01, 3.3750000e-01, 1.7200000e-03
7862, 3.7500000e-01, 3.3750000e-01, 1.7200000e-03
7863, 3.8750000e-01, 3.3750000e-01, 1.7200000e-03
7864, 4.0000000e-01, 3.3750000e-01, 1.7200000e-03
7865, 4.1250000e-01, 3.3750000e-01, 1.7200000e-03
7866, 4.2500000e-01, 3.3750000e-01, 1.7200000e-03
7867, 4.3750000e-01, 3.3750000e-01, 1.7200000e-03
7868, 4.5000000e-01, 3.3750000e-01, 1.7200000e-03
7869, 4.6250000e-01, 3.3750000e-01, 1.7200000e-03
7870, 4.7500000e-01, 3.3750000e-01, 1.7200000e-03
7871, 4.8750000e-01, 3.3750000e-01, 1.7200000e-03
7872, 5.0000000e-01, 3.3750000e-01, 1.7200000e-03
7873, 0.0000000e+00, 3.5000000e-01, 1.7200000e-03
7874, 1.2500000e-02, 3.5000000e-01, 1.7200000e-03
7875, 2.5000000e-02, 3.5000000e-01, 1.7200000e-03
7876, 3.7500000e-02, 3.5000000e-01, 1.7200000e-03
7877, 5.0000000e-02, 3.5000000e-01, 1.7200000e-03
7878, 6.2500000e-02, 3.5000000e-01, 1.7200000e-03
7879, 7.5000000e-02, 3.5000000e-01, 1.7200000e-03
7880, 8.7500000e-02, 3.5000000e-01, 1.7200000e-03
7881, 1.0000000e-01, 3.5000000e-01, 1.7200000e-03
7882, 1.1250000e-01, 3.5000000e-01, 1.7200000e-03
7883, 1.2500000e-01, 3.5000000e-01, 1.7200000e-03
7884, 1.3750000e-01, 3.5000000e-01, 1.7200000e-03
7885, 1.5000000e-01, 3.5000000e-01, 1.7200000e-03
7886, 1.6250000e-01, 3.5000000e-01, 1.7200000e-03
7887, 1.7500000e-01, 3.5000000e-01, 1.7200000e-03
7888, 1.8750000e-01, 3.5000000e-01, 1.7200000e-03
7889, 2.0000000e-01, 3.5000000e-01, 1.7200000e-03
7890, 2.1250000e-01, 3.5000000e-01, 1.7200000e-03
7891, 2.2500000e-01, 3.5000000e-01, 1.7200000e-03
7892, 2.3750000e-01, 3.5000000e-01, 1.7200000e-03
7893, 2.5000000e-01, 3.5000000e-01, 1.7200000e-03
7894, 2.6250000e-01, 3.5000000e-01, 1.7200000e-03
7895, 2.7500000e-01, 3.5000000e-01, 1.7200000e-03
7896, 2.8750000e-01, 3.5000000e-01, 1.7200000e-03
7897, 3.0000000e-01, 3.5000000e-01, 1.7200000e-03
7898, 3.1250000e-01, 3.5000000e-01, 1.7200000e-03
7899, 3.2500000e-01, 3.5000000e-01, 1.7200000e-03
7900, 3.3750000e-01, 3.5000000e-01, 1.7200000e-03
7901, 3.5000000e-01, 3.5000000e-01, 1.7200000e-03
7902, 3.6250000e-01, 3.5000000e-01, 1.7200000e-03
7903, 3.7500000e-01, 3.5000000e-01, 1.7200000e-03
7904, 3.8750000e-01, 3.5000000e-01, 1.7200000e-03
7905, 4.0000000e-01, 3.5000000e-01, 1.7200000e-03
7906, 4.1250000e-01, 3.5000000e-01, 1.7200000e-03
7907, 4.2500000e-01, 3.5000000e-01, 1.7200000e-03
7908, 4.3750000e-01, 3.5000000e-01, 1.7200000e-03
7909, 4.5000000e-01, 3.5000000e-01, 1.7200000e-03
7910, 4.6250000e-01, 3.5000000e-01, 1.7200000e-03
7911, 4.7500000e-01, 3.5000000e-01, 1.7200000e-03
7912, 4.8750000e-01, 3.5000000e-01, 1.7200000e-03
7913, 5.0000000e-01, 3.5000000e-01, 1.7200000e-03
7914, 0.0000000e+00, 3.6250000e-01, 1.7200000e-03
7915, 1.2500000e-02, 3.6250000e-01, 1.7200000e-03
7916, 2.5000000e-02, 3.6250000e-01, 1.7200000e-03
7917, 3.7500000e-02, 3.6250000e-01, 1.7200000e-03
7918, 5.0000000e-02, 3.6250000e-01, 1.7200000e-03
7919, 6.2500000e-02, 3.6250000e-01, 1.7200000e-03
7920, 7.5000000e-02, 3.6250000e-01, 1.7200000e-03
7921, 8.7500000e-02, 3.6250000e-01, 1.7200000e-03
7922, 1.0000000e-01, 3.6250000e-01, 1.7200000e-03
7923, 1.1250000e-01, 3.6250000e-01, 1.7200000e-03
7924, 1.2500000e-01, 3.6250000e-01, 1.7200000e-03
7925, 1.3750000e-01, 3.6250000e-01, 1.7200000e-03
7926, 1.5000000e-01, 3.6250000e-01, 1.7200000e-03
7927, 1.6250000e-01, 3.6250000e-01, 1.7200000e-03
7928, 1.7500000e-01, 3.6250000e-01, 1.7200000e-03
7929, 1.8750000e-01, 3.6250000e-01, 1.7200000e-03
7930, 2.0000000e-01, 3.6250000e-01, 1.7200000e-03
7931, 2.1250000e-01, 3.6250000e-01, 1.7200000e-03
7932, 2.2500000e-01, 3.6250000e-01, 1.7200000e-03
7933, 2.3750000e-01, 3.6250000e-01, 1.7200000e-03
7934, 2.5000000e-01, 3.6250000e-01, 1.7200000e-03
7935, 2.6250000e-01, 3.6250000e-01, 1.7200000e-03
7936, 2.7500000e-01, 3.6250000e-01, 1.7200000e-03
7937, 2.8750000e-01, 3.6250000e-01, 1.7200000e-03
7938, 3.0000000e-01, 3.6250000e-01, 1.7200000e-03
7939, 3.1250000e-01, 3.6250000e-01, 1.7200000e-03
7940, 3.2500000e-01, 3.6250000e-01, 1.7200000e-03
7941, 3.3750000e-01, 3.6250000e-01, 1.7200000e-03
7942, 3.5000000e-01, 3.6250000e-01, 1.7200000e-03
7943, 3.6250000e-01, 3.6250000e-01, 1.7200000e-03
7944, 3.7500000e-01, 3.6250000e-01, 1.7200000e-03
7945, 3.8750000e-01, 3.6250000e-01, 1.7200000e-03
7946, 4.0000000e-01, 3.6250000e-01, 1.7200000e-03
7947, 4.1250000e-01, 3.6250000e-01, 1.7200000e-03
7948, 4.2500000e-01, 3.6250000e-01, 1.7200000e-03
7949, 4.3750000e-01, 3.6250000e-01, 1.7200000e-03
7950, 4.5000000e-01, 3.6250000e-01, 1.7200000e-03
7951, 4.6250000e-01, 3.6250000e-01, 1.7200000e-03
7952, 4.7500000e-01, 3.6250000e-01, 1.7200000e-03
7953, 4.8750000e-01, 3.6250000e-01, 1.7200000e-03
7954, 5.0000000e-01, 3.6250000e-01, 1.7200000e-03
7955, 0.0000000e+00, 3.7500000e-01, 1.7200000e-03
7956, 1.2500000e-02, 3.7500000e-01, 1.7200000e-03
7957, 2.5000000e-02, 3.7500000e-01, 1.7200000e-03
7958, 3.7500000e-02, 3.7500000e-01, 1.7200000e-03
7959, 5.0000000e-02, 3.7500000e-01, 1.7200000e-03
7960, 6.2500000e-02, 3.7500000e-01, 1.7200000e-03
7961, 7.5000000e-02, 3.7500000e-01, 1.7200000e-03
7962, 8.7500000e-02, 3.7500000e-01, 1.7200000e-03
7963, 1.0000000e-01, 3.7500000e-01, 1.7200000e-03
7964, 1.1250000e-01, 3.7500000e-01, 1.7200000e-03
7965, 1.2500000e-01, 3.7500000e-01, 1.7200000e-03
7966, 1.3750000e-01, 3.7500000e-01, 1.7200000e-03
7967, 1.5000000e-01, 3.7500000e-01, 1.7200000e-03
7968, 1.6250000e-01, 3.7500000e-01, 1.7200000e-03
7969, 1.7500000e-01, 3.7500000e-01, 1.7200000e-03
7970, 1.8750000e-01, 3.7500000e-01, 1.7200000e-03
7971, 2.0000000e-01, 3.7500000e-01, 1.7200000e-03
7972, 2.1250000e-01, 3.7500000e-01, 1.7200000e-03
7973, 2.2500000e-01, 3.7500000e-01, 1.7200000e-03
7974, 2.3750000e-01, 3.7500000e-01, 1.7200000e-03
7975, 2.5000000e-01, 3.7500000e-01, 1.7200000e-03
7976, 2.6250000e-01, 3.7500000e-01, 1.7200000e-03
7977, 2.7500000e-01, 3.7500000e-01, 1.7200000e-03
7978, 2.8750000e-01, 3.7500000e-01, 1.7200000e-03
7979, 3.0000000e-01, 3.7500000e-01, 1.7200000e-03
7980, 3.1250000e-01, 3.7500000e-01, 1.7200000e-03
7981, 3.2500000e-01, 3.7500000e-01, 1.7200000e-03
7982, 3.3750000e-01, 3.7500000e-01, 1.7200000e-03
7983, 3.5000000e-01, 3.7500000e-01, 1.7200000e-03
7984, 3.6250000e-01, 3.7500000e-01, 1.7200000e-03
7985, 3.7500000e-01, 3.7500000e-01, 1.7200000e-03
7986, 3.8750000e-01, 3.7500000e-01, 1.7200000e-03
7987, 4.0000000e-01, 3.7500000e-01, 1.7200000e-03
7988, 4.1250000e-01, 3.7500000e-01, 1.7200000e-03
7989, 4.2500000e-01, 3.7500000e-01, 1.7200000e-03
7990, 4.3750000e-01, 3.7500000e-01, 1.7200000e-03
7991, 4.5000000e-01, 3.7500000e-01, 1.7200000e-03
7992, 4.6250000e-01, 3.7500000e-01, 1.7200000e-03
7993, 4.7500000e-01, 3.7500000e-01, 1.7200000e-03
7994, 4.8750000e-01, 3.7500000e-01, 1.7200000e-03
7995, 5.0000000e-01, 3.7500000e-01, 1.7200000e-03
7996, 0.0000000e+00, 3.8750000e-01, 1.7200000e-03
7997, 1.2500000e-02, 3.8750000e-01, 1.7200000e-03
7998, 2.5000000e-02, 3.8750000e-01, 1.7200000e-03
7999, 3.7500000e-02, 3.8750000e-01, 1.7200000e-03
8000, 5.0000000e-02, 3.8750000e-01, 1.7200000e-03
8001, 6.2500000e-02, 3.8750000e-01, 1.7200000e-03
8002, 7.5000000e-02, 3.8750000e-01, 1.7200000e-03
8003, 8.7500000e-02, 3.8750000e-01, 1.7200000e-03
8004, 1.0000000e-01, 3.8750000e-01, 1.7200000e-03
8005, 1.1250000e-01, 3.8750000e-01, 1.7200000e-03
8006, 1.2500000e-01, 3.8750000e-01, 1.7200000e-03
8007, 1.3750000e-01, 3.8750000e-01, 1.7200000e-03
8008, 1.5000000e-01, 3.8750000e-01, 1.7200000e-03
8009, 1.6250000e-01, 3.8750000e-01, 1.7200000e-03
8010, 1.7500000e-01, 3.8750000e-01, 1.7200000e-03
8011, 1.8750000e-01, 3.8750000e-01, 1.7200000e-03
8012, 2.0000000e-01, 3.8750000e-01, 1.7200000e-03
8013, 2.1250000e-01, 3.8750000e-01, 1.7200000e-03
8014, 2.2500000e-01, 3.8750000e-01, 1.7200000e-03
8015, 2.3750000e-01, 3.8750000e-01, 1.7200000e-03
8016, 2.5000000e-01, 3.8750000e-01, 1.7200000e-03
8017, 2.6250000e-01, 3.8750000e-01, 1.7200000e-03
8018, 2.7500000e-01, 3.8750000e-01, 1.7200000e-03
8019, 2.8750000e-01, 3.8750000e-01, 1.7200000e-03
8020, 3.0000000e-01, 3.8750000e-01, 1.7200000e-03
8021, 3.1250000e-01, 3.8750000e-01, 1.7200000e-03
8022, 3.2500000e-01, 3.8750000e-01, 1.7200000e-03
8023, 3.3750000e-01, 3.8750000e-01, 1.7200000e-03
8024, 3.5000000e-01, 3.8750000e-01, 1.7200000e-03
8025, 3.6250000e-01, 3.8750000e-01, 1.7200000e-03
8026, 3.7500000e-01, 3.8750000e-01, 1.7200000e-03
8027, 3.8750000e-01, 3.8750000e-01, 1.7200000e-03
8028, 4.0000000e-01, 3.8750000e-01, 1.7200000e-03
8029, 4.1250000e-01, 3.8750000e-01, 1.7200000e-03
8030, 4.2500000e-01, 3.8750000e-01, 1.7200000e-03
8031, 4.3750000e-01, 3.8750000e-01, 1.7200000e-03
8032, 4.5000000e-01, 3.8750000e-01, 1.7200000e-03
8033, 4.6250000e-01, 3.8750000e-01, 1.7200000e-03
8034, 4.7500000e-01, 3.8750000e-01, 1.7200000e-03
8035, 4.8750000e-01, 3.8750000e-01, 1.7200000e-03
8036, 5.0000000e-01, 3.8750000e-01, 1.7200000e-03
8037, 0.0000000e+00, 4.0000000e-01, 1.7200000e-03
8038, 1.2500000e-02, 4.0000000e-01, 1.7200000e-03
8039, 2.5000000e-02, 4.0000000e-01, 1.7200000e-03
8040, 3.7500000e-02, 4.0000000e-01, 1.7200000e-03
8041, 5.0000000e-02, 4.0000000e-01, 1.7200000e-03
8042, 6.2500000e-02, 4.0000000e-01, 1.7200000e-03
8043, 7.5000000e-02, 4.0000000e-01, 1.7200000e-03
8044, 8.7500000e-02, 4.0000000e-01, 1.7200000e-03
8045, 1.0000000e-01, 4.0000000e-01, 1.7200000e-03
8046, 1.1250000e-01, 4.0000000e-01, 1.7200000e-03
8047, 1.2500000e-01, 4.0000000e-01, 1.7200000e-03
8048, 1.3750000e-01, 4.0000000e-01, 1.7200000e-03
8049, 1.5000000e-01, 4.0000000e-01, 1.7200000e-03
8050, 1.6250000e-01, 4.0000000e-01, 1.7200000e-03
8051, 1.7500000e-01, 4.0000000e-01, 1.7200000e-03
8052, 1.8750000e-01, 4.0000000e-01, 1.7200000e-03
8053, 2.0000000e-01, 4.0000000e-01, 1.7200000e-03
8054, 2.1250000e-01, 4.0000000e-01, 1.7200000e-03
8055, 2.2500000e-01, 4.0000000e-01, 1.7200000e-03
8056, 2.3750000e-01, 4.0000000e-01, 1.7200000e-03
8057, 2.5000000e-01, 4.0000000e-01, 1.7200000e-03
8058, 2.6250000e-01, 4.0000000e-01, 1.7200000e-03
8059, 2.7500000e-01, 4.0000000e-01, 1.7200000e-03
8060, 2.8750000e-01, 4.0000000e-01, 1.7200000e-03
8061, 3.0000000e-01, 4.0000000e-01, 1.7200000e-03
8062, 3.1250000e-01, 4.0000000e-01, 1.7200000e-03
8063, 3.2500000e-01, 4.0000000e-01, 1.7200000e-03
8064, 3.3750000e-01, 4.0000000e-01, 1.7200000e-03
8065, 3.5000000e-01, 4.0000000e-01, 1.7200000e-03
8066, 3.6250000e-01, 4.0000000e-01, 1.7200000e-03
8067, 3.7500000e-01, 4.0000000e-01, 1.7200000e-03
8068, 3.8750000e-01, 4.0000000e-01, 1.7200000e-03
8069, 4.0000000e-01, 4.0000000e-01, 1.7200000e-03
8070, 4.1250000e-01, 4.0000000e-01, 1.7200000e-03
8071, 4.2500000e-01, 4.0000000e-01, 1.7200000e-03
8072, 4.3750000e-01, 4.0000000e-01, 1.7200000e-03
8073, 4.5000000e-01, 4.0000000e-01, 1.7200000e-03
8074, 4.6250000e-01, 4.0000000e-01, 1.7200000e-03
8075, 4.7500000e-01, 4.0000000e-01, 1.7200000e-03
8076, 4.8750000e-01, 4.0000000e-01, 1.7200000e-03
8077, 5.0000000e-01, 4.0000000e-01, 1.7200000e-03
8078, 0.0000000e+00, 4.1250000e-01, 1.7200000e-03
8079, 1.2500000e-02, 4.1250000e-01, 1.7200000e-03
8080, 2.5000000e-02, 4.1250000e-01, 1.7200000e-03
8081, 3.7500000e-02, 4.1250000e-01, 1.7200000e-03
8082, 5.0000000e-02, 4.1250000e-01, 1.7200000e-03
8083, 6.2500000e-02, 4.1250000e-01, 1.7200000e-03
8084, 7.5000000e-02, 4.1250000e-01, 1.7200000e-03
8085, 8.7500000e-02, 4.1250000e-01, 1.7200000e-03
8086, 1.0000000e-01, 4.1250000e-01, 1.7200000e-03
8087, 1.1250000e-01, 4.1250000e-01, 1.7200000e-03
8088, 1.2500000e-01, 4.1250000e-01, 1.7200000e-03
8089, 1.3750000e-01, 4.1250000e-01, 1.7200000e-03
8090, 1.5000000e-01, 4.1250000e-01, 1.7200000e-03
8091, 1.6250000e-01, 4.1250000e-01, 1.7200000e-03
8092, 1.7500000e-01, 4.1250000e-01, 1.7200000e-03
8093, 1.8750000e-01, 4.1250000e-01, 1.7200000e-03
8094, 2.0000000e-01, 4.1250000e-01, 1.7200000e-03
8095, 2.1250000e-01, 4.1250000e-01, 1.7200000e-03
8096, 2.2500000e-01, 4.1250000e-01, 1.7200000e-03
8097, 2.3750000e-01, 4.1250000e-01, 1.7200000e-03
8098, 2.5000000e-01, 4.1250000e-01, 1.7200000e-03
8099, 2.6250000e-01, 4.1250000e-01, 1.7200000e-03
8100, 2.7500000e-01, 4.1250000e-01, 1.7200000e-03
8101, 2.8750000e-01, 4.1250000e-01, 1.7200000e-03
8102, 3.0000000e-01, 4.1250000e-01, 1.7200000e-03
8103, 3.1250000e-01, 4.1250000e-01, 1.7200000e-03
8104, 3.2500000e-01, 4.1250000e-01, 1.7200000e-03
8105, 3.3750000e-01, 4.1250000e-01, 1.7200000e-03
8106, 3.5000000e-01, 4.1250000e-01, 1.7200000e-03
8107, 3.6250000e-01, 4.1250000e-01, 1.7200000e-03
8108, 3.7500000e-01, 4.1250000e-01, 1.7200000e-03
8109, 3.8750000e-01, 4.1250000e-01, 1.7200000e-03
8110, 4.0000000e-01, 4.1250000e-01, 1.7200000e-03
8111, 4.1250000e-01, 4.1250000e-01, 1.7200000e-03
8112, 4.2500000e-01, 4.1250000e-01, 1.7200000e-03
8113, 4.3750000e-01, 4.1250000e-01, 1.7200000e-03
8114, 4.5000000e-01, 4.1250000e-01, 1.7200000e-03
8115, 4.6250000e-01, 4.1250000e-01, 1.7200000e-03
8116, 4.7500000e-01, 4.1250000e-01, 1.7200000e-03
8117, 4.8750000e-01, 4.1250000e-01, 1.7200000e-03
8118, 5.0000000e-01, 4.1250000e-01, 1.7200000e-03
8119, 0.0000000e+00, 4.2500000e-01, 1.7200000e-03
8120, 1.2500000e-02, 4.2500000e-01, 1.7200000e-03
8121, 2.5000000e-02, 4.2500000e-01, 1.7200000e-03
8122, 3.7500000e-02, 4.2500000e-01, 1.7200000e-03
8123, 5.0000000e-02, 4.2500000e-01, 1.7200000e-03
8124, 6.2500000e-02, 4.2500000e-01, 1.7200000e-03
8125, 7.5000000e-02, 4.2500000e-01, 1.7200000e-03
8126, 8.7500000e-02, 4.2500000e-01, 1.7200000e-03
8127, 1.0000000e-01, 4.2500000e-01, 1.7200000e-03
8128, 1.1250000e-01, 4.2500000e-01, 1.7200000e-03
8129, 1.2500000e-01, 4.2500000e-01, 1.7200000e-03
8130, 1.3750000e-01, 4.2500000e-01, 1.7200000e-03
8131, 1.5000000e-01, 4.2500000e-01, 1.7200000e-03
8132, 1.6250000e-01, 4.2500000e-01, 1.7200000e-03
8133, 1.7500000e-01, 4.2500000e-01, 1.7200000e-03
8134, 1.8750000e-01, 4.2500000e-01, 1.7200000e-03
8135, 2.0000000e-01, 4.2500000e-01, 1.7200000e-03
8136, 2.1250000e-01, 4.2500000e-01, 1.7200000e-03
8137, 2.2500000e-01, 4.2500000e-01, 1.7200000e-03
8138, 2.3750000e-01, 4.2500000e-01, 1.7200000e-03
8139, 2.5000000e-01, 4.2500000e-01, 1.7200000e-03
8140, 2.6250000e-01, 4.2500000e-01, 1.7200000e-03
8141, 2.7500000e-01, 4.2500000e-01, 1.7200000e-03
8142, 2.8750000e-01, 4.2500000e-01, 1.7200000e-03
8143, 3.0000000e-01, 4.2500000e-01, 1.7200000e-03
8144, 3.1250000e-01, 4.2500000e-01, 1.7200000e-03
8145, 3.2500000e-01, 4.2500000e-01, 1.7200000e-03
8146, 3.3750000e-01, 4.2500000e-01, 1.7200000e-03
8147, 3.5000000e-01, 4.2500000e-01, 1.7200000e-03
8148, 3.6250000e-01, 4.2500000e-01, 1.7200000e-03
8149, 3.7500000e-01, 4.2500000e-01, 1.7200000e-03
8150, 3.8750000e-01, 4.2500000e-01, 1.7200000e-03
8151, 4.0000000e-01, 4.2500000e-01, 1.7200000e-03
8152, 4.1250000e-01, 4.2500000e-01, 1.7200000e-03
8153, 4.2500000e-01, 4.2500000e-01, 1.7200000e-03
8154, 4.3750000e-01, 4.2500000e-01, 1.7200000e-03
8155, 4.5000000e-01, 4.2500000e-01, 1.7200000e-03
8156, 4.6250000e-01, 4.2500000e-01, 1.7200000e-03
8157, 4.7500000e-01, 4.2500000e-01, 1.7200000e-03
8158, 4.8750000e-01, 4.2500000e-01, 1.7200000e-03
8159, 5.0000000e-01, 4.2500000e-01, 1.7200000e-03
8160, 0.0000000e+00, 4.3750000e-01, 1.7200000e-03
8161, 1.2500000e-02, 4.3750000e-01, 1.7200000e-03
8162, 2.5000000e-02, 4.3750000e-01, 1.7200000e-03
8163, 3.7500000e-02, 4.3750000e-01, 1.7200000e-03
8164, 5.0000000e-02, 4.3750000e-01, 1.7200000e-03
8165, 6.2500000e-02, 4.3750000e-01, 1.7200000e-03
8166, 7.5000000e-02, 4.3750000e-01, 1.7200000e-03
8167, 8.7500000e-02, 4.3750000e-01, 1.7200000e-03
8168, 1.0000000e-01, 4.3750000e-01, 1.7200000e-03
8169, 1.1250000e-01, 4.3750000e-01, 1.7200000e-03
8170, 1.2500000e-01, 4.3750000e-01, 1.7200000e-03
8171, 1.3750000e-01, 4.3750000e-01, 1.7200000e-03
8172, 1.5000000e-01, 4.3750000e-01, 1.7200000e-03
8173, 1.6250000e-01, 4.3750000e-01, 1.7200000e-03
8174, 1.7500000e-01, 4.3750000e-01, 1.7200000e-03
8175, 1.8750000e-01, 4.3750000e-01, 1.7200000e-03
8176, 2.0000000e-01, 4.3750000e-01, 1.7200000e-03
8177, 2.1250000e-01, 4.3750000e-01, 1.7200000e-03
8178, 2.2500000e-01, 4.3750000e-01, 1.7200000e-03
8179, 2.3750000e-01, 4.3750000e-01, 1.7200000e-03
8180, 2.5000000e-01, 4.3750000e-01, 1.7200000e-03
8181, 2.6250000e-01, 4.3750000e-01, 1.7200000e-03
8182, 2.7500000e-01, 4.3750000e-01, 1.7200000e-03
8183, 2.8750000e-01, 4.3750000e-01, 1.7200000e-03
8184, 3.0000000e-01, 4.3750000e-01, 1.7200000e-03
8185, 3.1250000e-01, 4.3750000e-01, 1.7200000e-03
8186, 3.2500000e-01, 4.3750000e-01, 1.7200000e-03
8187, 3.3750000e-01, 4.3750000e-01, 1.7200000e-03
8188, 3.5000000e-01, 4.3750000e-01, 1.7200000e-03
8189, 3.6250000e-01, 4.3750000e-01, 1.7200000e-03
8190, 3.7500000e-01, 4.3750000e-01, 1.7200000e-03
8191, 3.8750000e-01, 4.3750000e-01, 1.7200000e-03
8192, 4.0000000e-01, 4.3750000e-01, 1.7200000e-03
8193, 4.1250000e-01, 4.3750000e-01, 1.7200000e-03
8194, 4.2500000e-01, 4.3750000e-01, 1.7200000e-03
8195, 4.3750000e-01, 4.3750000e-01, 1.7200000e-03
8196, 4.5000000e-01, 4.3750000e-01, 1.7200000e-03
8197, 4.6250000e-01, 4.3750000e-01, 1.7200000e-03
8198, 4.7500000e-01, 4.3750000e-01, 1.7200000e-03
8199, 4.8750000e-01, 4.3750000e-01, 1.7200000e-03
8200, 5.0000000e-01, 4.3750000e-01, 1.7200000e-03
8201, 0.0000000e+00, 4.5000000e-01, 1.7200000e-03
8202, 1.2500000e-02, 4.5000000e-01, 1.7200000e-03
8203, 2.5000000e-02, 4.5000000e-01, 1.7200000e-03
8204, 3.7500000e-02, 4.5000000e-01, 1.7200000e-03
8205, 5.0000000e-02, 4.5000000e-01, 1.7200000e-03
8206, 6.2500000e-02, 4.5000000e-01, 1.7200000e-03
8207, 7.5000000e-02, 4.5000000e-01, 1.7200000e-03
8208, 8.7500000e-02, 4.5000000e-01, 1.7200000e-03
8209, 1.0000000e-01, 4.5000000e-01, 1.7200000e-03
8210, 1.1250000e-01, 4.5000000e-01, 1.7200000e-03
8211, 1.2500000e-01, 4.5000000e-01, 1.7200000e-03
8212, 1.3750000e-01, 4.5000000e-01, 1.7200000e-03
8213, 1.5000000e-01, 4.5000000e-01, 1.7200000e-03
8214, 1.6250000e-01, 4.5000000e-01, 1.7200000e-03
8215, 1.7500000e-01, 4.5000000e-01, 1.7200000e-03
8216, 1.8750000e-01, 4.5000000e-01, 1.7200000e-03
8217, 2.0000000e-01, 4.5000000e-01, 1.7200000e-03
8218, 2.1250000e-01, 4.5000000e-01, 1.7200000e-03
8219, 2.2500000e-01, 4.5000000e-01, 1.7200000e-03
8220, 2.3750000e-01, 4.5000000e-01, 1.7200000e-03
8221, 2.5000000e-01, 4.5000000e-01, 1.7200000e-03
8222, 2.6250000e-01, 4.5000000e-01, 1.7200000e-03
8223, 2.7500000e-01, 4.5000000e-01, 1.7200000e-03
8224, 2.8750000e-01, 4.5000000e-01, 1.7200000e-03
8225, 3.0000000e-01, 4.5000000e-01, 1.7200000e-03
8226, 3.1250000e-01, 4.5000000e-01, 1.7200000e-03
8227, 3.2500000e-01, 4.5000000e-01, 1.7200000e-03
8228, 3.3750000e-01, 4.5000000e-01, 1.7200000e-03
8229, 3.5000000e-01, 4.5000000e-01, 1.7200000e-03
8230, 3.6250000e-01, 4.5000000e-01, 1.7200000e-03
8231, 3.7500000e-01, 4.5000000e-01, 1.7200000e-03
8232, 3.8750000e-01, 4.5000000e-01, 1.7200000e-03
8233, 4.0000000e-01, 4.5000000e-01, 1.7200000e-03
8234, 4.1250000e-01, 4.5000000e-01, 1.7200000e-03
8235, 4.2500000e-01, 4.5000000e-01, 1.7200000e-03
8236, 4.3750000e-01, 4.5000000e-01, 1.7200000e-03
8237, 4.5000000e-01, 4.5000000e-01, 1.7200000e-03
8238, 4.6250000e-01, 4.5000000e-01, 1.7200000e-03
8239, 4.7500000e-01, 4.5000000e-01, 1.7200000e-03
8240, 4.8750000e-01, 4.5000000e-01, 1.7200000e-03
8241, 5.0000000e-01, 4.5000000e-01, 1.7200000e-03
8242, 0.0000000e+00, 4.6250000e-01, 1.7200000e-03
8243, 1.2500000e-02, 4.6250000e-01, 1.7200000e-03
8244, 2.5000000e-02, 4.6250000e-01, 1.7200000e-03
8245, 3.7500000e-02, 4.6250000e-01, 1.7200000e-03
8246, 5.0000000e-02, 4.6250000e-01, 1.7200000e-03
8247, 6.2500000e-02, 4.6250000e-01, 1.7200000e-03
8248, 7.5000000e-02, 4.6250000e-01, 1.7200000e-03
8249, 8.7500000e-02, 4.6250000e-01, 1.7200000e-03
8250, 1.0000000e-01, 4.6250000e-01, 1.7200000e-03
8251, 1.1250000e-01, 4.6250000e-01, 1.7200000e-03
8252, 1.2500000e-01, 4.6250000e-01, 1.7200000e-03
8253, 1.3750000e-01, 4.6250000e-01, 1.7200000e-03
8254, 1.5000000e-01, 4.6250000e-01, 1.7200000e-03
8255, 1.6250000e-01, 4.6250000e-01, 1.7200000e-03
8256, 1.7500000e-01, 4.6250000e-01, 1.7200000e-03
8257, 1.8750000e-01, 4.6250000e-01, 1.7200000e-03
8258, 2.0000000e-01, 4.6250000e-01, 1.7200000e-03
8259, 2.1250000e-01, 4.6250000e-01, 1.7200000e-03
8260, 2.2500000e-01, 4.6250000e-01, 1.7200000e-03
8261, 2.3750000e-01, 4.6250000e-01, 1.7200000e-03
8262, 2.5000000e-01, 4.6250000e-01, 1.7200000e-03
8263, 2.6250000e-01, 4.6250000e-01, 1.7200000e-03
8264, 2.7500000e-01, 4.6250000e-01, 1.7200000e-03
8265, 2.8750000e-01, 4.6250000e-01, 1.7200000e-03
8266, 3.0000000e-01, 4.6250000e-01, 1.7200000e-03
8267, 3.1250000e-01, 4.6250000e-01, 1.7200000e-03
8268, 3.2500000e-01, 4.6250000e-01, 1.7200000e-03
8269, 3.3750000e-01, 4.6250000e-01, 1.7200000e-03
8270, 3.5000000e-01, 4.6250000e-01, 1.7200000e-03
8271, 3.6250000e-01, 4.6250000e-01, 1.7200000e-03
8272, 3.7500000e-01, 4.6250000e-01, 1.7200000e-03
8273, 3.8750000e-01, 4.6250000e-01, 1.7200000e-03
8274, 4.0000000e-01, 4.6250000e-01, 1.7200000e-03
8275, 4.1250000e-01, 4.6250000e-01, 1.7200000e-03
8276, 4.2500000e-01, 4.6250000e-01, 1.7200000e-03
8277, 4.3750000e-01, 4.6250000e-01, 1.7200000e-03
8278, 4.5000000e-01, 4.6250000e-01, 1.7200000e-03
8279, 4.6250000e-01, 4.6250000e-01, 1.7200000e-03
8280, 4.7500000e-01, 4.6250000e-01, 1.7200000e-03
8281, 4.8750000e-01, 4.6250000e-01, 1.7200000e-03
8282, 5.0000000e-01, 4.6250000e-01, 1.7200000e-03
8283, 0.0000000e+00, 4.7500000e-01, 1.7200000e-03
8284, 1.2500000e-02, 4.7500000e-01, 1.7200000e-03
8285, 2.5000000e-02, 4.7500000e-01, 1.7200000e-03
8286, 3.7500000e-02, 4.7500000e-01, 1.7200000e-03
8287, 5.0000000e-02, 4.7500000e-01, 1.7200000e-03
8288, 6.2500000e-02, 4.7500000e-01, 1.7200000e-03
8289, 7.5000000e-02, 4.7500000e-01, 1.7200000e-03
8290, 8.7500000e-02, 4.7500000e-01, 1.7200000e-03
8291, 1.0000000e-01, 4.7500000e-01, 1.7200000e-03
8292, 1.1250000e-01, 4.7500000e-01, 1.7200000e-03
8293, 1.2500000e-01, 4.7500000e-01, 1.7200000e-03
8294, 1.3750000e-01, 4.7500000e-01, 1.7200000e-03
8295, 1.5000000e-01, 4.7500000e-01, 1.7200000e-03
8296, 1.6250000e-01, 4.7500000e-01, 1.7200000e-03
8297, 1.7500000e-01, 4.7500000e-01, 1.7200000e-03
8298, 1.8750000e-01, 4.7500000e-01, 1.7200000e-03
8299, 2.0000000e-01, 4.7500000e-01, 1.7200000e-03
8300, 2.1250000e-01, 4.7500000e-01, 1.7200000e-03
8301, 2.2500000e-01, 4.7500000e-01, 1.7200000e-03
8302, 2.3750000e-01, 4.7500000e-01, 1.7200000e-03
8303, 2.5000000e-01, 4.7500000e-01, 1.7200000e-03
8304, 2.6250000e-01, 4.7500000e-01, 1.7200000e-03
8305, 2.7500000e-01, 4.7500000e-01, 1.7200000e-03
8306, 2.8750000e-01, 4.7500000e-01, 1.7200000e-03
8307, 3.0000000e-01, 4.7500000e-01, 1.7200000e-03
8308, 3.1250000e-01, 4.7500000e-01, 1.7200000e-03
8309, 3.2500000e-01, 4.7500000e-01, 1.7200000e-03
8310, 3.3750000e-01, 4.7500000e-01, 1.7200000e-03
8311, 3.5000000e-01, 4.7500000e-01, 1.7200000e-03
8312, 3.6250000e-01, 4.7500000e-01, 1.7200000e-03
8313, 3.7500000e-01, 4.7500000e-01, 1.7200000e-03
8314, 3.8750000e-01, 4.7500000e-01, 1.7200000e-03
8315, 4.0000000e-01, 4.7500000e-01, 1.7200000e-03
8316, 4.1250000e-01, 4.7500000e-01, 1.7200000e-03
8317, 4.2500000e-01, 4.7500000e-01, 1.7200000e-03
8318, 4.3750000e-01, 4.7500000e-01, 1.7200000e-03
8319, 4.5000000e-01, 4.7500000e-01, 1.7200000e-03
8320, 4.6250000e-01, 4.7500000e-01, 1.7200000e-03
8321, 4.7500000e-01, 4.7500000e-01, 1.7200000e-03
8322, 4.8750000e-01, 4.7500000e-01, 1.7200000e-03
8323, 5.0000000e-01, 4.7500000e-01, 1.7200000e-03
8324, 0.0000000e+00, 4.8750000e-01, 1.7200000e-03
8325, 1.2500000e-02, 4.8750000e-01, 1.7200000e-03
8326, 2.5000000e-02, 4.8750000e-01, 1.7200000e-03
8327, 3.7500000e-02, 4.8750000e-01, 1.7200000e-03
8328, 5.0000000e-02, 4.8750000e-01, 1.7200000e-03
8329, 6.2500000e-02, 4.8750000e-01, 1.7200000e-03
8330, 7.5000000e-02, 4.8750000e-01, 1.7200000e-03
8331, 8.7500000e-02, 4.8750000e-01, 1.7200000e-03
8332, 1.0000000e-01, 4.8750000e-01, 1.7200000e-03
8333, 1.1250000e-01, 4.8750000e-01, 1.7200000e-03
8334, 1.2500000e-01, 4.8750000e-01, 1.7200000e-03
8335, 1.3750000e-01, 4.8750000e-01, 1.7200000e-03
8336, 1.5000000e-01, 4.8750000e-01, 1.7200000e-03
8337, 1.6250000e-01, 4.8750000e-01, 1.7200000e-03
8338, 1.7500000e-01, 4.8750000e-01, 1.7200000e-03
8339, 1.8750000e-01, 4.8750000e-01, 1.7200000e-03
8340, 2.0000000e-01, 4.8750000e-01, 1.7200000e-03
8341, 2.1250000e-01, 4.8750000e-01, 1.7200000e-03
8342, 2.2500000e-01, 4.8750000e-01, 1.7200000e-03
8343, 2.3750000e-01, 4.8750000e-01, 1.7200000e-03
8344, 2.5000000e-01, 4.8750000e-01, 1.7200000e-03
8345, 2.6250000e-01, 4.8750000e-01, 1.7200000e-03
8346, 2.7500000e-01, 4.8750000e-01, 1.7200000e-03
8347, 2.8750000e-01, 4.8750000e-01, 1.7200000e-03
8348, 3.0000000e-01, 4.8750000e-01, 1.7200000e-03
8349, 3.1250000e-01, 4.8750000e-01, 1.7200000e-03
8350, 3.2500000e-01, 4.8750000e-01, 1.7200000e-03
8351, 3.3750000e-01, 4.8750000e-01, 1.7200000e-03
8352, 3.5000000e-01, 4.8750000e-01, 1.7200000e-03
8353, 3.6250000e-01, 4.8750000e-01, 1.7200000e-03
8354, 3.7500000e-01, 4.8750000e-01, 1.7200000e-03
8355, 3.8750000e-01, 4.8750000e-01, 1.7200000e-03
8356, 4.0000000e-01, 4.8750000e-01, 1.7200000e-03
8357, 4.1250000e-01, 4.8750000e-01, 1.7200000e-03
8358, 4.2500000e-01, 4.8750000e-01, 1.7200000e-03
8359, 4.3750000e-01, 4.8750000e-01, 1.7200000e-03
8360, 4.5000000e-01, 4.8750000e-01, 1.7200000e-03
8361, 4.6250000e-01, 4.8750000e-01, 1.7200000e-03
8362, 4.7500000e-01, 4.8750000e-01, 1.7200000e-03
8363, 4.8750000e-01, 4.8750000e-01, 1.7200000e-03
8364, 5.0000000e-01, 4.8750000e-01, 1.7200000e-03
8365, 0.0000000e+00, 5.0000000e-01, 1.7200000e-03
8366, 1.2500000e-02, 5.0000000e-01, 1.7200000e-03
8367, 2.5000000e-02, 5.0000000e-01, 1.7200000e-03
8368, 3.7500000e-02, 5.0000000e-01, 1.7200000e-03
8369, 5.0000000e-02, 5.0000000e-01, 1.7200000e-03
8370, 6.2500000e-02, 5.0000000e-01, 1.7200000e-03
8371, 7.5000000e-02, 5.0000000e-01, 1.7200000e-03
8372, 8.7500000e-02, 5.0000000e-01, 1.7200000e-03
8373, 1.0000000e-01, 5.0000000e-01, 1.7200000e-03
8374, 1.1250000e-01, 5.0000000e-01, 1.7200000e-03
8375, 1.2500000e-01, 5.0000000e-01, 1.7200000e-03
8376, 1.3750000e-01, 5.0000000e-01, 1.7200000e-03
8377, 1.5000000e-01, 5.0000000e-01, 1.7200000e-03
8378, 1.6250000e-01, 5.0000000e-01, 1.7200000e-03
8379, 1.7500000e-01, 5.0000000e-01, 1.7200000e-03
8380, 1.8750000e-01, 5.0000000e-01, 1.7200000e-03
8381, 2.0000000e-01, 5.0000000e-01, 1.7200000e-03
8382, 2.1250000e-01, 5.0000000e-01, 1.7200000e-03
8383, 2.2500000e-01, 5.0000000e-01, 1.7200000e-03
8384, 2.3750000e-01, 5.0000000e-01, 1.7200000e-03
8385, 2.5000000e-01, 5.0000000e-01, 1.7200000e-03
8386, 2.6250000e-01, 5.0000000e-01, 1.7200000e-03
8387, 2.7500000e-01, 5.0000000e-01, 1.7200000e-03
8388, 2.8750000e-01, 5.0000000e-01, 1.7200000e-03
8389, 3.0000000e-01, 5.0000000e-01, 1.7200000e-03
8390, 3.1250000e-01, 5.0000000e-01, 1.7200000e-03
8391, 3.2500000e-01, 5.0000000e-01, 1.7200000e-03
8392, 3.3750000e-01, 5.0000000e-01, 1.7200000e-03
8393, 3.5000000e-01, 5.0000000e-01, 1.7200000e-03
8394, 3.6250000e-01, 5.0000000e-01, 1.7200000e-03
8395, 3.7500000e-01, 5.0000000e-01, 1.7200000e-03
8396, 3.8750000e-01, 5.0000000e-01, 1.7200000e-03
8397, 4.0000000e-01, 5.0000000e-01, 1.7200000e-03
8398, 4.1250000e-01, 5.0000000e-01, 1.7200000e-03
8399, 4.2500000e-01, 5.0000000e-01, 1.7200000e-03
8400, 4.3750000e-01, 5.0000000e-01, 1.7200000e-03
8401, 4.5000000e-01, 5.0000000e-01, 1.7200000e-03
8402, 4.6250000e-01, 5.0000000e-01, 1.7200000e-03
8403, 4.7500000e-01, 5.0000000e-01, 1.7200000e-03
8404, 4.8750000e-01, 5.0000000e-01, 1.7200000e-03
8405, 5.0000000e-01, 5.0000000e-01, 1.7200000e-03
8406, 2.3750000e-01, 2.1250000e-01, 8.6000000e-04
8407, 2.3750000e-01, 2.2500000e-01, 8.6000000e-04
8408, 2.3750000e-01, 2.3750000e-01, 8.6000000e-04
8409, 2.3750000e-01, 2.5000000e-01, 8.6000000e-04
8410, 2.3750000e-01, 2.6250000e-01, 8.6000000e-04
8411, 2.3750000e-01, 2.7500000e-01, 8.6000000e-04
8412, 2.3750000e-01, 2.8750000e-01, 8.6000000e-04
8413, 2.5000000e-01, 2.1250000e-01, 8.6000000e-04
8414, 2.5000000e-01, 2.2500000e-01, 8.6000000e-04
8415, 2.5000000e-01, 2.3750000e-01, 8.6000000e-04
8416, 2.5000000e-01, 2.5000000e-01, 8.6000000e-04
8417, 2.5000000e-01, 2.6250000e-01, 8.6000000e-04
8418, 2.5000000e-01, 2.7500000e-01, 8.6000000e-04
8419, 2.5000000e-01, 2.8750000e-01, 8.6000000e-04
8420, 2.6250000e-01, 2.1250000e-01, 8.6000000e-04
8421, 2.6250000e-01, 2.2500000e-01, 8.6000000e-04
8422, 2.6250000e-01, 2.3750000e-01, 8.6000000e-04
8423, 2.6250000e-01, 2.5000000e-01, 8.6000000e-04
8424, 2.6250000e-01, 2.6250000e-01, 8.6000000e-04
8425, 2.6250000e-01, 2.7500000e-01, 8.6000000e-04
8426, 2.6250000e-01, 2.8750000e-01, 8.6000000e-04
*Element, type=C3D8R
1, 1, 2, 43, 42, 1682, 1683, 1724, 1723
2, 2, 3, 44, 43, 1683, 1684, 1725, 1724
3, 3, 4, 45, 44, 1684, 1685, 1726, 1725
4, 4, 5, 46, 45, 1685, 1686, 1727, 1726
5, 5, 6, 47, 46, 1686, 1687, 1728, 1727
6, 6, 7, 48, 47, 1687, 1688, 1729, 1728
7, 7, 8, 49, 48, 1688, 1689, 1730, 1729
8, 8, 9, 50, 49, 1689, 1690, 1731, 1730
9, 9, 10, 51, 50, 1690, 1691, 1732, 1731
10, 10, 11, 52, 51, 1691, 1692, 1733, 1732
11, 11, 12, 53, 52, 1692, 1693, 1734, 1733
12, 12, 13, 54, 53, 1693, 1694, 1735, 1734
13, 13, 14, 55, 54, 1694, 1695, 1736, 1735
14, 14, 15, 56, 55, 1695, 1696, 1737, 1736
15, 15, 16, 57, 56, 1696, 1697, 1738, 1737
16, 16, 17, 58, 57, 1697, 1698, 1739, 1738
17, 17, 18, 59, 58, 1698, 1699, 1740, 1739
18, 18, 19, 60, 59, 1699, 1700, 1741, 1740
19, 19, 20, 61, 60, 1700, 1701, 1742, 1741
20, 20, 21, 62, 61, 1701, 1702, 1743, 1742
21, 21, 22, 63, 62, 1702, 1703, 1744, 1743
22, 22, 23, 64, 63, 1703, 1704, 1745, 1744
23, 23, 24, 65, 64, 1704, 1705, 1746, 1745
24, 24, 25, 66, 65, 1705, 1706, 1747, 1746
25, 25, 26, 67, 66, 1706, 1707, 1748, 1747
26, 26, 27, 68, 67, 1707, 1708, 1749, 1748
27, 27, 28, 69, 68, 1708, 1709, 1750, 1749
28, 28, 29, 70, 69, 1709, 1710, 1751, 1750
29, 29, 30, 71, 70, 1710, 1711, 1752, 1751
30, 30, 31, 72, 71, 1711, 1712, 1753, 1752
31, 31, 32, 73, 72, 1712, 1713, 1754, 1753
32, 32, 33, 74, 73, 1713, 1714, 1755, 1754
33, 33, 34, 75, 74, 1714, 1715, 1756, 1755
34, 34, 35, 76, 75, 1715, 1716, 1757, 1756
35, 35, 36, 77, 76, 1716, 1717, 1758, 1757
36, 36, 37, 78, 77, 1717, 1718, 1759, 1758
37, 37, 38, 79, 78, 1718, 1719, 1760, 1759
38, 38, 39, 80, 79, 1719, 1720, 1761, 1760
39, 39, 40, 81, 80, 1720, 1721, 1762, 1761
40, 40, 41, 82, 81, 1721, 1722, 1763, 1762
41, 42, 43, 84, 83, 1723, 1724, 1765, 1764
42, 43, 44, 85, 84, 1724, 1725, 1766, 1765
43, 44, 45, 86, 85, 1725, 1726, 1767, 1766
44, 45, 46, 87, 86, 1726, 1727, 1768, 1767
45, 46, 47, 88, 87, 1727, 1728, 1769, 1768
46, 47, 48, 89, 88, 1728, 1729, 1770, 1769
47, 48, 49, 90, 89, 1729, 1730, 1771, 1770
48, 49, 50, 91, 90, 1730, 1731, 1772, 1771
49, 50, 51, 92, 91, 1731, 1732, 1773, 1772
50, 51, 52, 93, 92, 1732, 1733, 1774, 1773
51, 52, 53, 94, 93, 1733, 1734, 1775, 1774
52, 53, 54, 95, 94, 1734, 1735, 1776, 1775
53, 54, 55, 96, 95, 1735, 1736, 1777, 1776
54, 55, 56, 97, 96, 1736, 1737, 1778, 1777
55, 56, 57, 98, 97, 1737, 1738, 1779, 1778
56, 57, 58, 99, 98, 1738, 1739, 1780, 1779
57, 58, 59, 100, 99, 1739, 1740, 1781, 1780
58, 59, 60, 101, 100, 1740, 1741, 1782, 1781
59, 60, 61, 102, 101, 1741, 1742, 1783, 1782
60, 61, 62, 103, 102, 1742, 1743, 1784, 1783
61, 62, 63, 104, 103, 1743, 1744, 1785, 1784
62, 63, 64, 105, 104, 1744, 1745, 1786, 1785
63, 64, 65, 106, 105, 1745, 1746, 1787, 1786
64, 65, 66, 107, 106, 1746, 1747, 1788, 1787
65, 66, 67, 108, 107, 1747, 1748, 1789, 1788
66, 67, 68, 109, 108, 1748, 1749, 1790, 1789
67, 68, 69, 110, 109, 1749, 1750, 1791, 1790
68, 69, 70, 111, 110, 1750, 1751, 1792, 1791
69, 70, 71, 112, 111, 1751, 1752, 1793, 1792
70, 71, 72, 113, 112, 1752, 1753, 1794, 1793
71, 72, 73, 114, 113, 1753, 1754, 1795, 1794
72, 73, 74, 115, 114, 1754, 1755, 1796, 1795
73, 74, 75, 116, 115, 1755, 1756, 1797, 1796
74, 75, 76, 117, 116, 1756, 1757, 1798, 1797
75, 76, 77, 118, 117, 1757, 1758, 1799, 1798
76, 77, 78, 119, 118, 1758, 1759, 1800, 1799
77, 78, 79, 120, 119, 1759, 1760, 1801, 1800
78, 79, 80, 121, 120, 1760, 1761, 1802, 1801
79, 80, 81, 122, 121, 1761, 1762, 1803, 1802
80, 81, 82, 123, 122, 1762, 1763, 1804, 1803
81, 83, 84, 125, 124, 1764, 1765, 1806, 1805
82, 84, 85, 126, 125, 1765, 1766, 1807, 1806
83, 85, 86, 127, 126, 1766, 1767, 1808, 1807
84, 86, 87, 128, 127, 1767, 1768, 1809, 1808
85, 87, 88, 129, 128, 1768, 1769, 1810, 1809
86, 88, 89, 130, 129, 1769, 1770, 1811, 1810
87, 89, 90, 131, 130, 1770, 1771, 1812, 1811
88, 90, 91, 132, 131, 1771, 1772, 1813, 1812
89, 91, 92, 133, 132, 1772, 1773, 1814, 1813
90, 92, 93, 134, 133, 1773, 1774, 1815, 1814
91, 93, 94, 135, 134, 1774, 1775, 1816, 1815
92, 94, 95, 136, 135, 1775, 1776, 1817, 1816
93, 95, 96, 137, 136, 1776, 1777, 1818, 1817
94, 96, 97, 138, 137, 1777, 1778, 1819, 1818
95, 97, 98, 139, 138, 1778, 1779, 1820, 1819
96, 98, 99, 140, 139, 1779, 1780, 1821, 1820
97, 99, 100, 141, 140, 1780, 1781, 1822, 1821
98, 100, 101, 142, 141, 1781, 1782, 1823, 1822
99, 101, 102, 143, 142, 1782, 1783, 1824, 1823
100, 102, 103, 144, 143, 1783, 1784, 1825, 1824
101, 103, 104, 145, 144, 1784, 1785, 1826, 1825
102, 104, 105, 146, 145, 1785, 1786, 1827, 1826
103, 105, 106, 147, 146, 1786, 1787, 1828, 1827
104, 106, 107, 148, 147, 1787, 1788, 1829, 1828
105, 107, 108, 149, 148, 1788, 1789, 1830, 1829
106, 108, 109, 150, 149, 1789, 1790, 1831, 1830
107, 109, 110, 151, 150, 1790, 1791, 1832, 1831
108, 110, 111, 152, 151, 1791, 1792, 1833, 1832
109, 111, 112, 153, 152, 1792, 1793, 1834, 1833
110, 112, 113, 154, 153, 1793, 1794, 1835, 1834
111, 113, 114, 155, 154, 1794, 1795, 1836, 1835
112, 114, 115, 156, 155, 1795, 1796, 1837, 1836
113, 115, 116, 157, 156, 1796, 1797, 1838, 1837
114, 116, 117, 158, 157, 1797, 1798, 1839, 1838
115, 117, 118, 159, 158, 1798, 1799, 1840, 1839
116, 118, 119, 160, 159, 1799, 1800, 1841, 1840
117, 119, 120, 161, 160, 1800, 1801, 1842, 1841
118, 120, 121, 162, 161, 1801, 1802, 1843, 1842
119, 121, 122, 163, 162, 1802, 1803, 1844, 1843
120, 122, 123, 164, 163, 1803, 1804, 1845, 1844
121, 124, 125, 166, 165, 1805, 1806, 1847, 1846
122, 125, 126, 167, 166, 1806, 1807, 1848, 1847
123, 126, 127, 168, 167, 1807, 1808, 1849, 1848
124, 127, 128, 169, 168, 1808, 1809, 1850, 1849
125, 128, 129, 170, 169, 1809, 1810, 1851, 1850
126, 129, 130, 171, 170, 1810, 1811, 1852, 1851
127, 130, 131, 172, 171, 1811, 1812, 1853, 1852
128, 131, 132, 173, 172, 1812, 1813, 1854, 1853
129, 132, 133, 174, 173, 1813, 1814, 1855, 1854
130, 133, 134, 175, 174, 1814, 1815, 1856, 1855
131, 134, 135, 176, 175, 1815, 1816, 1857, 1856
132, 135, 136, 177, 176, 1816, 1817, 1858, 1857
133, 136, 137, 178, 177, 1817, 1818, 1859, 1858
134, 137, 138, 179, 178, 1818, 1819, 1860, 1859
135, 138, 139, 180, 179, 1819, 1820, 1861, 1860
136, 139, 140, 181, 180, 1820, 1821, 1862, 1861
137, 140, 141, 182, 181, 1821, 1822, 1863, 1862
138, 141, 142, 183, 182, 1822, 1823, 1864, 1863
139, 142, 143, 184, 183, 1823, 1824, 1865, 1864
140, 143, 144, 185, 184, 1824, 1825, 1866, 1865
141, 144, 145, 186, 185, 1825, 1826, 1867, 1866
142, 145, 146, 187, 186, 1826, 1827, 1868, 1867
143, 146, 147, 188, 187, 1827, 1828, 1869, 1868
144, 147, 148, 189, 188, 1828, 1829, 1870, 1869
145, 148, 149, 190, 189, 1829, 1830, 1871, 1870
146, 149, 150, 191, 190, 1830, 1831, 1872, 1871
147, 150, 151, 192, 191, 1831, 1832, 1873, 1872
148, 151, 152, 193, 192, 1832, 1833, 1874, 1873
149, 152, 153, 194, 193, 1833, 1834, 1875, 1874
150, 153, 154, 195, 194, 1834, 1835, 1876, 1875
151, 154, 155, 196, 195, 1835, 1836, 1877, 1876
152, 155, 156, 197, 196, 1836, 1837, 1878, 1877
153, 156, 157, 198, 197, 1837, 1838, 1879, 1878
154, 157, 158, 199, 198, 1838, 1839, 1880, 1879
155, 158, 159, 200, 199, 1839, 1840, 1881, 1880
156, 159, 160, 201, 200, 1840, 1841, 1882, 1881
157, 160, 161, 202, 201, 1841, 1842, 1883, 1882
158, 161, 162, 203, 202, 1842, 1843, 1884, 1883
159, 162, 163, 204, 203, 1843, 1844, 1885, 1884
160, 163, 164, 205, 204, 1844, 1845, 1886, 1885
161, 165, 166, 207, 206, 1846, 1847, 1888, 1887
162, 166, 167, 208, 207, 1847, 1848, 1889, 1888
163, 167, 168, 209, 208, 1848, 1849, 1890, 1889
164, 168, 169, 210, 209, 1849, 1850, 1891, 1890
165, 169, 170, 211, 210, 1850, 1851, 1892, 1891
166, 170, 171, 212, 211, 1851, 1852, 1893, 1892
167, 171, 172, 213, 212, 1852, 1853, 1894, 1893
168, 172, 173, 214, 213, 1853, 1854, 1895, 1894
169, 173, 174, 215, 214, 1854, 1855, 1896, 1895
170, 174, 175, 216, 215, 1855, 1856, 1897, 1896
171, 175, 176, 217, 216, 1856, 1857, 1898, 1897
172, 176, 177, 218, 217, 1857, 1858, 1899, 1898
173, 177, 178, 219, 218, 1858, 1859, 1900, 1899
174, 178, 179, 220, 219, 1859, 1860, 1901, 1900
175, 179, 180, 221, 220, 1860, 1861, 1902, 1901
176, 180, 181, 222, 221, 1861, 1862, 1903, 1902
177, 181, 182, 223, 222, 1862, 1863, 1904, 1903
178, 182, 183, 224, 223, 1863, 1864, 1905, 1904
179, 183, 184, 225, 224, 1864, 1865, 1906, 1905
180, 184, 185, 226, 225, 1865, 1866, 1907, 1906
181, 185, 186, 227, 226, 1866, 1867, 1908, 1907
182, 186, 187, 228, 227, 1867, 1868, 1909, 1908
183, 187, 188, 229, 228, 1868, 1869, 1910, 1909
184, 188, 189, 230, 229, 1869, 1870, 1911, 1910
185, 189, 190, 231, 230, 1870, 1871, 1912, 1911
186, 190, 191, 232, 231, 1871, 1872, 1913, 1912
187, 191, 192, 233, 232, 1872, 1873, 1914, 1913
188, 192, 193, 234, 233, 1873, 1874, 1915, 1914
189, 193, 194, 235, 234, 1874, 1875, 1916, 1915
190, 194, 195, 236, 235, 1875, 1876, 1917, 1916
191, 195, 196, 237, 236, 1876, 1877, 1918, 1917
192, 196, 197, 238, 237, 1877, 1878, 1919, 1918
193, 197, 198, 239, 238, 1878, 1879, 1920, 1919
194, 198, 199, 240, 239, 1879, 1880, 1921, 1920
195, 199, 200, 241, 240, 1880, 1881, 1922, 1921
196, 200, 201, 242, 241, 1881, 1882, 1923, 1922
197, 201, 202, 243, 242, 1882, 1883, 1924, 1923
198, 202, 203, 244, 243, 1883, 1884, 1925, 1924
199, 203, 204, 245, 244, 1884, 1885, 1926, 1925
200, 204, 205, 246, 245, 1885, 1886, 1927, 1926
201, 206, 207, 248, 247, 1887, 1888, 1929, 1928
202, 207, 208, 249, 248, 1888, 1889, 1930, 1929
203, 208, 209, 250, 249, 1889, 1890, 1931, 1930
204, 209, 210, 251, 250, 1890, 1891, 1932, 1931
205, 210, 211, 252, 251, 1891, 1892, 1933, 1932
206, 211, 212, 253, 252, 1892, 1893, 1934, 1933
207, 212, 213, 254, 253, 1893, 1894, 1935, 1934
208, 213, 214, 255, 254, 1894, 1895, 1936, 1935
209, 214, 215, 256, 255, 1895, 1896, 1937, 1936
210, 215, 216, 257, 256, 1896, 1897, 1938, 1937
211, 216, 217, 258, 257, 1897, 1898, 1939, 1938
212, 217, 218, 259, 258, 1898, 1899, 1940, 1939
213, 218, 219, 260, 259, 1899, 1900, 1941, 1940
214, 219, 220, 261, 260, 1900, 1901, 1942, 1941
215, 220, 221, 262, 261, 1901, 1902, 1943, 1942
216, 221, 222, 263, 262, 1902, 1903, 1944, 1943
217, 222, 223, 264, 263, 1903, 1904, 1945, 1944
218, 223, 224, 265, 264, 1904, 1905, 1946, 1945
219, 224, 225, 266, 265, 1905, 1906, 1947, 1946
220, 225, 226, 267, 266, 1906, 1907, 1948, 1947
221, 226, 227, 268, 267, 1907, 1908, 1949, 1948
222, 227, 228, 269, 268, 1908, 1909, 1950, 1949
223, 228, 229, 270, 269, 1909, 1910, 1951, 1950
224, 229, 230, 271, 270, 1910, 1911, 1952, 1951
225, 230, 231, 272, 271, 1911, 1912, 1953, 1952
226, 231, 232, 273, 272, 1912, 1913, 1954, 1953
227, 232, 233, 274, 273, 1913, 1914, 1955, 1954
228, 233, 234, 275, 274, 1914, 1915, 1956, 1955
229, 234, 235, 276, 275, 1915, 1916, 1957, 1956
230, 235, 236, 277, 276, 1916, 1917, 1958, 1957
231, 236, 237, 278, 277, 1917, 1918, 1959, 1958
232, 237, 238, 279, 278, 1918, 1919, 1960, 1959
233, 238, 239, 280, 279, 1919, 1920, 1961, 1960
234, 239, 240, 281, 280, 1920, 1921, 1962, 1961
235, 240, 241, 282, 281, 1921, 1922, 1963, 1962
236, 241, 242, 283, 282, 1922, 1923, 1964, 1963
237, 242, 243, 284, 283, 1923, 1924, 1965, 1964
238, 243, 244, 285, 284, 1924, 1925, 1966, 1965
239, 244, 245, 286, 285, 1925, 1926, 1967, 1966
240, 245, 246, 287, 286, 1926, 1927, 1968, 1967
241, 247, 248, 289, 288, 1928, 1929, 1970, 1969
242, 248, 249, 290, 289, 1929, 1930, 1971, 1970
243, 249, 250, 291, 290, 1930, 1931, 1972, 1971
244, 250, 251, 292, 291, 1931, 1932, 1973, 1972
245, 251, 252, 293, 292, 1932, 1933, 1974, 1973
246, 252, 253, 294, 293, 1933, 1934, 1975, 1974
247, 253, 254, 295, 294, 1934, 1935, 1976, 1975
248, 254, 255, 296, 295, 1935, 1936, 1977, 1976
249, 255, 256, 297, 296, 1936, 1937, 1978, 1977
250, 256, 257, 298, 297, 1937, 1938, 1979, 1978
251, 257, 258, 299, 298, 1938, 1939, 1980, 1979
252, 258, 259, 300, 299, 1939, 1940, 1981, 1980
253, 259, 260, 301, 300, 1940, 1941, 1982, 1981
254, 260, 261, 302, 301, 1941, 1942, 1983, 1982
255, 261, 262, 303, 302, 1942, 1943, 1984, 1983
256, 262, 263, 304, 303, 1943, 1944, 1985, 1984
257, 263, 264, 305, 304, 1944, 1945, 1986, 1985
258, 264, 265, 306, 305, 1945, 1946, 1987, 1986
259, 265, 266, 307, 306, 1946, 1947, 1988, 1987
260, 266, 267, 308, 307, 1947, 1948, 1989, 1988
261, 267, 268, 309, 308, 1948, 1949, 1990, 1989
262, 268, 269, 310, 309, 1949, 1950, 1991, 1990
263, 269, 270, 311, 310, 1950, 1951, 1992, 1991
264, 270, 271, 312, 311, 1951, 1952, 1993, 1992
265, 271, 272, 313, 312, 1952, 1953, 1994, 1993
266, 272, 273, 314, 313, 1953, 1954, 1995, 1994
267, 273, 274, 315, 314, 1954, 1955, 1996, 1995
268, 274, 275, 316, 315, 1955, 1956, 1997, 1996
269, 275, 276, 317, 316, 1956, 1957, 1998, 1997
270, 276, 277, 318, 317, 1957, 1958, 1999, 1998
271, 277, 278, 319, 318, 1958, 1959, 2000, 1999
272, 278, 279, 320, 319, 1959, 1960, 2001, 2000
273, 279, 280, 321, 320, 1960, 1961, 2002, 2001
274, 280, 281, 322, 321, 1961, 1962, 2003, 2002
275, 281, 282, 323, 322, 1962, 1963, 2004, 2003
276, 282, 283, 324, 323, 1963, 1964, 2005, 2004
277, 283, 284, 325, 324, 1964, 1965, 2006, 2005
278, 284, 285, 326, 325, 1965, 1966, 2007, 2006
279, 285, 286, 327, 326, 1966, 1967, 2008, 2007
280, 286, 287, 328, 327, 1967, 1968, 2009, 2008
281, 288, 289, 330, 329, 1969, 1970, 2011, 2010
282, 289, 290, 331, 330, 1970, 1971, 2012, 2011
283, 290, 291, 332, 331, 1971, 1972, 2013, 2012
284, 291, 292, 333, 332, 1972, 1973, 2014, 2013
285, 292, 293, 334, 333, 1973, 1974, 2015, 2014
286, 293, 294, 335, 334, 1974, 1975, 2016, 2015
287, 294, 295, 336, 335, 1975, 1976, 2017, 2016
288, 295, 296, 337, 336, 1976, 1977, 2018, 2017
289, 296, 297, 338, 337, 1977, 1978, 2019, 2018
290, 297, 298, 339, 338, 1978, 1979, 2020, 2019
291, 298, 299, 340, 339, 1979, 1980, 2021, 2020
292, 299, 300, 341, 340, 1980, 1981, 2022, 2021
293, 300, 301, 342, 341, 1981, 1982, 2023, 2022
294, 301, 302, 343, 342, 1982, 1983, 2024, 2023
295, 302, 303, 344, 343, 1983, 1984, 2025, 2024
296, 303, 304, 345, 344, 1984, 1985, 2026, 2025
297, 304, 305, 346, 345, 1985, 1986, 2027, 2026
298, 305, 306, 347, 346, 1986, 1987, 2028, 2027
299, 306, 307, 348, 347, 1987, 1988, 2029, 2028
300, 307, 308, 349, 348, 1988, 1989, 2030, 2029
301, 308, 309, 350, 349, 1989, 1990, 2031, 2030
302, 309, 310, 351, 350, 1990, 1991, 2032, 2031
303, 310, 311, 352, 351, 1991, 1992, 2033, 2032
304, 311, 312, 353, 352, 1992, 1993, 2034, 2033
305, 312, 313, 354, 353, 1993, 1994, 2035, 2034
306, 313, 314, 355, 354, 1994, 1995, 2036, 2035
307, 314, 315, 356, 355, 1995, 1996, 2037, 2036
308, 315, 316, 357, 356, 1996, 1997, 2038, 2037
309, 316, 317, 358, 357, 1997, 1998, 2039, 2038
310, 317, 318, 359, 358, 1998, 1999, 2040, 2039
311, 318, 319, 360, 359, 1999, 2000, 2041, 2040
312, 319, 320, 361, 360, 2000, 2001, 2042, 2041
313, 320, 321, 362, 361, 2001, 2002, 2043, 2042
314, 321, 322, 363, 362, 2002, 2003, 2044, 2043
315, 322, 323, 364, 363, 2003, 2004, 2045, 2044
316, 323, 324, 365, 364, 2004, 2005, 2046, 2045
317, 324, 325, 366, 365, 2005, 2006, 2047, 2046
318, 325, 326, 367, 366, 2006, 2007, 2048, 2047
319, 326, 327, 368, 367, 2007, 2008, 2049, 2048
320, 327, 328, 369, 368, 2008, 2009, 2050, 2049
321, 329, 330, 371, 370, 2010, 2011, 2052, 2051
322, 330, 331, 372, 371, 2011, 2012, 2053, 2052
323, 331, 332, 373, 372, 2012, 2013, 2054, 2053
324, 332, 333, 374, 373, 2013, 2014, 2055, 2054
325, 333, 334, 375, 374, 2014, 2015, 2056, 2055
326, 334, 335, 376, 375, 2015, 2016, 2057, 2056
327, 335, 336, 377, 376, 2016, 2017, 2058, 2057
328, 336, 337, 378, 377, 2017, 2018, 2059, 2058
329, 337, 338, 379, 378, 2018, 2019, 2060, 2059
330, 338, 339, 380, 379, 2019, 2020, 2061, 2060
331, 339, 340, 381, 380, 2020, 2021, 2062, 2061
332, 340, 341, 382, 381, 2021, 2022, 2063, 2062
333, 341, 342, 383, 382, 2022, 2023, 2064, 2063
334, 342, 343, 384, 383, 2023, 2024, 2065, 2064
335, 343, 344, 385, 384, 2024, 2025, 2066, 2065
336, 344, 345, 386, 385, 2025, 2026, 2067, 2066
337, 345, 346, 387, 386, 2026, 2027, 2068, 2067
338, 346, 347, 388, 387, 2027, 2028, 2069, 2068
339, 347, 348, 389, 388, 2028, 2029, 2070, 2069
340, 348, 349, 390, 389, 2029, 2030, 2071, 2070
341, 349, 350, 391, 390, 2030, 2031, 2072, 2071
342, 350, 351, 392, 391, 2031, 2032, 2073, 2072
343, 351, 352, 393, 392, 2032, 2033, 2074, 2073
344, 352, 353, 394, 393, 2033, 2034, 2075, 2074
345, 353, 354, 395, 394, 2034, 2035, 2076, 2075
346, 354, 355, 396, 395, 2035, 2036, 2077, 2076
347, 355, 356, 397, 396, 2036, 2037, 2078, 2077
348, 356, 357, 398, 397, 2037, 2038, 2079, 2078
349, 357, 358, 399, 398, 2038, 2039, 2080, 2079
350, 358, 359, 400, 399, 2039, 2040, 2081, 2080
351, 359, 360, 401, 400, 2040, 2041, 2082, 2081
352, 360, 361, 402, 401, 2041, 2042, 2083, 2082
353, 361, 362, 403, 402, 2042, 2043, 2084, 2083
354, 362, 363, 404, 403, 2043, 2044, 2085, 2084
355, 363, 364, 405, 404, 2044, 2045, 2086, 2085
356, 364, 365, 406, 405, 2045, 2046, 2087, 2086
357, 365, 366, 407, 406, 2046, 2047, 2088, 2087
358, 366, 367, 408, 407, 2047, 2048, 2089, 2088
359, 367, 368, 409, 408, 2048, 2049, 2090, 2089
360, 368, 369, 410, 409, 2049, 2050, 2091, 2090
361, 370, 371, 412, 411, 2051, 2052, 2093, 2092
362, 371, 372, 413, 412, 2052, 2053, 2094, 2093
363, 372, 373, 414, 413, 2053, 2054, 2095, 2094
364, 373, 374, 415, 414, 2054, 2055, 2096, 2095
365, 374, 375, 416, 415, 2055, 2056, 2097, 2096
366, 375, 376, 417, 416, 2056, 2057, 2098, 2097
367, 376, 377, 418, 417, 2057, 2058, 2099, 2098
368, 377, 378, 419, 418, 2058, 2059, 2100, 2099
369, 378, 379, 420, 419, 2059, 2060, 2101, 2100
370, 379, 380, 421, 420, 2060, 2061, 2102, 2101
371, 380, 381, 422, 421, 2061, 2062, 2103, 2102
372, 381, 382, 423, 422, 2062, 2063, 2104, 2103
373, 382, 383, 424, 423, 2063, 2064, 2105, 2104
374, 383, 384, 425, 424, 2064, 2065, 2106, 2105
375, 384, 385, 426, 425, 2065, 2066, 2107, 2106
376, 385, 386, 427, 426, 2066, 2067, 2108, 2107
377, 386, 387, 428, 427, 2067, 2068, 2109, 2108
378, 387, 388, 429, 428, 2068, 2069, 2110, 2109
379, 388, 389, 430, 429, 2069, 2070, 2111, 2110
380, 389, 390, 431, 430, 2070, 2071, 2112, 2111
381, 390, 391, 432, 431, 2071, 2072, 2113, 2112
382, 391, 392, 433, 432, 2072, 2073, 2114, 2113
383, 392, 393, 434, 433, 2073, 2074, 2115, 2114
384, 393, 394, 435, 434, 2074, 2075, 2116, 2115
385, 394, 395, 436, 435, 2075, 2076, 2117, 2116
386, 395, 396, 437, 436, 2076, 2077, 2118, 2117
387, 396, 397, 438, 437, 2077, 2078, 2119, 2118
388, 397, 398, 439, 438, 2078, 2079, 2120, 2119
389, 398, 399, 440, 439, 2079, 2080, 2121, 2120
390, 399, 400, 441, 440, 2080, 2081, 2122, 2121
391, 400, 401, 442, 441, 2081, 2082, 2123, 2122
392, 401, 402, 443, 442, 2082, 2083, 2124, 2123
393, 402, 403, 444, 443, 2083, 2084, 2125, 2124
394, 403, 404, 445, 444, 2084, 2085, 2126, 2125
395, 404, 405, 446, 445, 2085, 2086, 2127, 2126
396, 405, 406, 447, 446, 2086, 2087, 2128, 2127
397, 406, 407, 448, 447, 2087, 2088, 2129, 2128
398, 407, 408, 449, 448, 2088, 2089, 2130, 2129
399, 408, 409, 450, 449, 2089, 2090, 2131, 2130
400, 409, 410, 451, 450, 2090, 2091, 2132, 2131
401, 411, 412, 453, 452, 2092, 2093, 2134, 2133
402, 412, 413, 454, 453, 2093, 2094, 2135, 2134
403, 413, 414, 455, 454, 2094, 2095, 2136, 2135
404, 414, 415, 456, 455, 2095, 2096, 2137, 2136
405, 415, 416, 457, 456, 2096, 2097, 2138, 2137
406, 416, 417, 458, 457, 2097, 2098, 2139, 2138
407, 417, 418, 459, 458, 2098, 2099, 2140, 2139
408, 418, 419, 460, 459, 2099, 2100, 2141, 2140
409, 419, 420, 461, 460, 2100, 2101, 2142, 2141
410, 420, 421, 462, 461, 2101, 2102, 2143, 2142
411, 421, 422, 463, 462, 2102, 2103, 2144, 2143
412, 422, 423, 464, 463, 2103, 2104, 2145, 2144
413, 423, 424, 465, 464, 2104, 2105, 2146, 2145
414, 424, 425, 466, 465, 2105, 2106, 2147, 2146
415, 425, 426, 467, 466, 2106, 2107, 2148, 2147
416, 426, 427, 468, 467, 2107, 2108, 2149, 2148
417, 427, 428, 469, 468, 2108, 2109, 2150, 2149
418, 428, 429, 470, 469, 2109, 2110, 2151, 2150
419, 429, 430, 471, 470, 2110, 2111, 2152, 2151
420, 430, 431, 472, 471, 2111, 2112, 2153, 2152
421, 431, 432, 473, 472, 2112, 2113, 2154, 2153
422, 432, 433, 474, 473, 2113, 2114, 2155, 2154
423, 433, 434, 475, 474, 2114, 2115, 2156, 2155
424, 434, 435, 476, 475, 2115, 2116, 2157, 2156
425, 435, 436, 477, 476, 2116, 2117, 2158, 2157
426, 436, 437, 478, 477, 2117, 2118, 2159, 2158
427, 437, 438, 479, 478, 2118, 2119, 2160, 2159
428, 438, 439, 480, 479, 2119, 2120, 2161, 2160
429, 439, 440, 481, 480, 2120, 2121, 2162, 2161
430, 440, 441, 482, 481, 2121, 2122, 2163, 2162
431, 441, 442, 483, 482, 2122, 2123, 2164, 2163
432, 442, 443, 484, 483, 2123, 2124, 2165, 2164
433, 443, 444, 485, 484, 2124, 2125, 2166, 2165
434, 444, 445, 486, 485, 2125, 2126, 2167, 2166
435, 445, 446, 487, 486, 2126, 2127, 2168, 2167
436, 446, 447, 488, 487, 2127, 2128, 2169, 2168
437, 447, 448, 489, 488, 2128, 2129, 2170, 2169
438, 448, 449, 490, 489, 2129, 2130, 2171, 2170
439, 449, 450, 491, 490, 2130, 2131, 2172, 2171
440, 450, 451, 492, 491, 2131, 2132, 2173, 2172
441, 452, 453, 494, 493, 2133, 2134, 2175, 2174
442, 453, 454, 495, 494, 2134, 2135, 2176, 2175
443, 454, 455, 496, 495, 2135, 2136, 2177, 2176
444, 455, 456, 497, 496, 2136, 2137, 2178, 2177
445, 456, 457, 498, 497, 2137, 2138, 2179, 2178
446, 457, 458, 499, 498, 2138, 2139, 2180, 2179
447, 458, 459, 500, 499, 2139, 2140, 2181, 2180
448, 459, 460, 501, 500, 2140, 2141, 2182, 2181
449, 460, 461, 502, 501, 2141, 2142, 2183, 2182
450, 461, 462, 503, 502, 2142, 2143, 2184, 2183
451, 462, 463, 504, 503, 2143, 2144, 2185, 2184
452, 463, 464, 505, 504, 2144, 2145, 2186, 2185
453, 464, 465, 506, 505, 2145, 2146, 2187, 2186
454, 465, 466, 507, 506, 2146, 2147, 2188, 2187
455, 466, 467, 508, 507, 2147, 2148, 2189, 2188
456, 467, 468, 509, 508, 2148, 2149, 2190, 2189
457, 468, 469, 510, 509, 2149, 2150, 2191, 2190
458, 469, 470, 511, 510, 2150, 2151, 2192, 2191
459, 470, 471, 512, 511, 2151, 2152, 2193, 2192
460, 471, 472, 513, 512, 2152, 2153, 2194, 2193
461, 472, 473, 514, 513, 2153, 2154, 2195, 2194
462, 473, 474, 515, 514, 2154, 2155, 2196, 2195
463, 474, 475, 516, 515, 2155, 2156, 2197, 2196
464, 475, 476, 517, 516, 2156, 2157, 2198, 2197
465, 476, 477, 518, 517, 2157, 2158, 2199, 2198
466, 477, 478, 519, 518, 2158, 2159, 2200, 2199
467, 478, 479, 520, 519, 2159, 2160, 2201, 2200
468, 479, 480, 521, 520, 2160, 2161, 2202, 2201
469, 480, 481, 522, 521, 2161, 2162, 2203, 2202
470, 481, 482, 523, 522, 2162, 2163, 2204, 2203
471, 482, 483, 524, 523, 2163, 2164, 2205, 2204
472, 483, 484, 525, 524, 2164, 2165, 2206, 2205
473, 484, 485, 526, 525, 2165, 2166, 2207, 2206
474, 485, 486, 527, 526, 2166, 2167, 2208, 2207
475, 486, 487, 528, 527, 2167, 2168, 2209, 2208
476, 487, 488, 529, 528, 2168, 2169, 2210, 2209
477, 488, 489, 530, 529, 2169, 2170, 2211, 2210
478, 489, 490, 531, 530, 2170, 2171, 2212, 2211
479, 490, 491, 532, 531, 2171, 2172, 2213, 2212
480, 491, 492, 533, 532, 2172, 2173, 2214, 2213
481, 493, 494, 535, 534, 2174, 2175, 2216, 2215
482, 494, 495, 536, 535, 2175, 2176, 2217, 2216
483, 495, 496, 537, 536, 2176, 2177, 2218, 2217
484, 496, 497, 538, 537, 2177, 2178, 2219, 2218
485, 497, 498, 539, 538, 2178, 2179, 2220, 2219
486, 498, 499, 540, 539, 2179, 2180, 2221, 2220
487, 499, 500, 541, 540, 2180, 2181, 2222, 2221
488, 500, 501, 542, 541, 2181, 2182, 2223, 2222
489, 501, 502, 543, 542, 2182, 2183, 2224, 2223
490, 502, 503, 544, 543, 2183, 2184, 2225, 2224
491, 503, 504, 545, 544, 2184, 2185, 2226, 2225
492, 504, 505, 546, 545, 2185, 2186, 2227, 2226
493, 505, 506, 547, 546, 2186, 2187, 2228, 2227
494, 506, 507, 548, 547, 2187, 2188, 2229, 2228
495, 507, 508, 549, 548, 2188, 2189, 2230, 2229
496, 508, 509, 550, 549, 2189, 2190, 2231, 2230
497, 509, 510, 551, 550, 2190, 2191, 2232, 2231
498, 510, 511, 552, 551, 2191, 2192, 2233, 2232
499, 511, 512, 553, 552, 2192, 2193, 2234, 2233
500, 512, 513, 554, 553, 2193, 2194, 2235, 2234
501, 513, 514, 555, 554, 2194, 2195, 2236, 2235
502, 514, 515, 556, 555, 2195, 2196, 2237, 2236
503, 515, 516, 557, 556, 2196, 2197, 2238, 2237
504, 516, 517, 558, 557, 2197, 2198, 2239, 2238
505, 517, 518, 559, 558, 2198, 2199, 2240, 2239
506, 518, 519, 560, 559, 2199, 2200, 2241, 2240
507, 519, 520, 561, 560, 2200, 2201, 2242, 2241
508, 520, 521, 562, 561, 2201, 2202, 2243, 2242
509, 521, 522, 563, 562, 2202, 2203, 2244, 2243
510, 522, 523, 564, 563, 2203, 2204, 2245, 2244
511, 523, 524, 565, 564, 2204, 2205, 2246, 2245
512, 524, 525, 566, 565, 2205, 2206, 2247, 2246
513, 525, 526, 567, 566, 2206, 2207, 2248, 2247
514, 526, 527, 568, 567, 2207, 2208, 2249, 2248
515, 527, 528, 569, 568, 2208, 2209, 2250, 2249
516, 528, 529, 570, 569, 2209, 2210, 2251, 2250
517, 529, 530, 571, 570, 2210, 2211, 2252, 2251
518, 530, 531, 572, 571, 2211, 2212, 2253, 2252
519, 531, 532, 573, 572, 2212, 2213, 2254, 2253
520, 532, 533, 574, 573, 2213, 2214, 2255, 2254
521, 534, 535, 576, 575, 2215, 2216, 2257, 2256
522, 535, 536, 577, 576, 2216, 2217, 2258, 2257
523, 536, 537, 578, 577, 2217, 2218, 2259, 2258
524, 537, 538, 579, 578, 2218, 2219, 2260, 2259
525, 538, 539, 580, 579, 2219, 2220, 2261, 2260
526, 539, 540, 581, 580, 2220, 2221, 2262, 2261
527, 540, 541, 582, 581, 2221, 2222, 2263, 2262
528, 541, 542, 583, 582, 2222, 2223, 2264, 2263
529, 542, 543, 584, 583, 2223, 2224, 2265, 2264
530, 543, 544, 585, 584, 2224, 2225, 2266, 2265
531, 544, 545, 586, 585, 2225, 2226, 2267, 2266
532, 545, 546, 587, 586, 2226, 2227, 2268, 2267
533, 546, 547, 588, 587, 2227, 2228, 2269, 2268
534, 547, 548, 589, 588, 2228, 2229, 2270, 2269
535, 548, 549, 590, 589, 2229, 2230, 2271, 2270
536, 549, 550, 591, 590, 2230, 2231, 2272, 2271
537, 550, 551, 592, 591, 2231, 2232, 2273, 2272
538, 551, 552, 593, 592, 2232, 2233, 2274, 2273
539, 552, 553, 594, 593, 2233, 2234, 2275, 2274
540, 553, 554, 595, 594, 2234, 2235, 2276, 2275
541, 554, 555, 596, 595, 2235, 2236, 2277, 2276
542, 555, 556, 597, 596, 2236, 2237, 2278, 2277
543, 556, 557, 598, 597, 2237, 2238, 2279, 2278
544, 557, 558, 599, 598, 2238, 2239, 2280, 2279
545, 558, 559, 600, 599, 2239, 2240, 2281, 2280
546, 559, 560, 601, 600, 2240, 2241, 2282, 2281
547, 560, 561, 602, 601, 2241, 2242, 2283, 2282
548, 561, 562, 603, 602, 2242, 2243, 2284, 2283
549, 562, 563, 604, 603, 2243, 2244, 2285, 2284
550, 563, 564, 605, 604, 2244, 2245, 2286, 2285
551, 564, 565, 606, 605, 2245, 2246, 2287, 2286
552, 565, 566, 607, 606, 2246, 2247, 2288, 2287
553, 566, 567, 608, 607, 2247, 2248, 2289, 2288
554, 567, 568, 609, 608, 2248, 2249, 2290, 2289
555, 568, 569, 610, 609, 2249, 2250, 2291, 2290
556, 569, 570, 611, 610, 2250, 2251, 2292, 2291
557, 570, 571, 612, 611, 2251, 2252, 2293, 2292
558, 571, 572, 613, 612, 2252, 2253, 2294, 2293
559, 572, 573, 614, 613, 2253, 2254, 2295, 2294
560, 573, 574, 615, 614, 2254, 2255, 2296, 2295
561, 575, 576, 617, 616, 2256, 2257, 2298, 2297
562, 576, 577, 618, 617, 2257, 2258, 2299, 2298
563, 577, 578, 619, 618, 2258, 2259, 2300, 2299
564, 578, 579, 620, 619, 2259, 2260, 2301, 2300
565, 579, 580, 621, 620, 2260, 2261, 2302, 2301
566, 580, 581, 622, 621, 2261, 2262, 2303, 2302
567, 581, 582, 623, 622, 2262, 2263, 2304, 2303
568, 582, 583, 624, 623, 2263, 2264, 2305, 2304
569, 583, 584, 625, 624, 2264, 2265, 2306, 2305
570, 584, 585, 626, 625, 2265, 2266, 2307, 2306
571, 585, 586, 627, 626, 2266, 2267, 2308, 2307
572, 586, 587, 628, 627, 2267, 2268, 2309, 2308
573, 587, 588, 629, 628, 2268, 2269, 2310, 2309
574, 588, 589, 630, 629, 2269, 2270, 2311, 2310
575, 589, 590, 631, 630, 2270, 2271, 2312, 2311
576, 590, 591, 632, 631, 2271, 2272, 2313, 2312
577, 591, 592, 633, 632, 2272, 2273, 2314, 2313
578, 592, 593, 634, 633, 2273, 2274, 2315, 2314
579, 593, 594, 635, 634, 2274, 2275, 2316, 2315
580, 594, 595, 636, 635, 2275, 2276, 2317, 2316
581, 595, 596, 637, 636, 2276, 2277, 2318, 2317
582, 596, 597, 638, 637, 2277, 2278, 2319, 2318
583, 597, 598, 639, 638, 2278, 2279, 2320, 2319
584, 598, 599, 640, 639, 2279, 2280, 2321, 2320
585, 599, 600, 641, 640, 2280, 2281, 2322, 2321
586, 600, 601, 642, 641, 2281, 2282, 2323, 2322
587, 601, 602, 643, 642, 2282, 2283, 2324, 2323
588, 602, 603, 644, 643, 2283, 2284, 2325, 2324
589, 603, 604, 645, 644, 2284, 2285, 2326, 2325
590, 604, 605, 646, 645, 2285, 2286, 2327, 2326
591, 605, 606, 647, 646, 2286, 2287, 2328, 2327
592, 606, 607, 648, 647, 2287, 2288, 2329, 2328
593, 607, 608, 649, 648, 2288, 2289, 2330, 2329
594, 608, 609, 650, 649, 2289, 2290, 2331, 2330
595, 609, 610, 651, 650, 2290, 2291, 2332, 2331
596, 610, 611, 652, 651, 2291, 2292, 2333, 2332
597, 611, 612, 653, 652, 2292, 2293, 2334, 2333
598, 612, 613, 654, 653, 2293, 2294, 2335, 2334
599, 613, 614, 655, 654, 2294, 2295, 2336, 2335
600, 614, 615, 656, 655, 2295, 2296, 2337, 2336
601, 616, 617, 658, 657, 2297, 2298, 2339, 2338
602, 617, 618, 659, 658, 2298, 2299, 2340, 2339
603, 618, 619, 660, 659, 2299, 2300, 2341, 2340
604, 619, 620, 661, 660, 2300, 2301, 2342, 2341
605, 620, 621, 662, 661, 2301, 2302, 2343, 2342
606, 621, 622, 663, 662, 2302, 2303, 2344, 2343
607, 622, 623, 664, 663, 2303, 2304, 2345, 2344
608, 623, 624, 665, 664, 2304, 2305, 2346, 2345
609, 624, 625, 666, 665, 2305, 2306, 2347, 2346
610, 625, 626, 667, 666, 2306, 2307, 2348, 2347
611, 626, 627, 668, 667, 2307, 2308, 2349, 2348
612, 627, 628, 669, 668, 2308, 2309, 2350, 2349
613, 628, 629, 670, 669, 2309, 2310, 2351, 2350
614, 629, 630, 671, 670, 2310, 2311, 2352, 2351
615, 630, 631, 672, 671, 2311, 2312, 2353, 2352
616, 631, 632, 673, 672, 2312, 2313, 2354, 2353
617, 632, 633, 674, 673, 2313, 2314, 2355, 2354
618, 633, 634, 675, 674, 2314, 2315, 2356, 2355
619, 634, 635, 676, 675, 2315, 2316, 2357, 2356
620, 635, 636, 677, 676, 2316, 2317, 2358, 2357
621, 636, 637, 678, 677, 2317, 2318, 2359, 2358
622, 637, 638, 679, 678, 2318, 2319, 2360, 2359
623, 638, 639, 680, 679, 2319, 2320, 2361, 2360
624, 639, 640, 681, 680, 2320, 2321, 2362, 2361
625, 640, 641, 682, 681, 2321, 2322, 2363, 2362
626, 641, 642, 683, 682, 2322, 2323, 2364, 2363
627, 642, 643, 684, 683, 2323, 2324, 2365, 2364
628, 643, 644, 685, 684, 2324, 2325, 2366, 2365
629, 644, 645, 686, 685, 2325, 2326, 2367, 2366
630, 645, 646, 687, 686, 2326, 2327, 2368, 2367
631, 646, 647, 688, 687, 2327, 2328, 2369, 2368
632, 647, 648, 689, 688, 2328, 2329, 2370, 2369
633, 648, 649, 690, 689, 2329, 2330, 2371, 2370
634, 649, 650, 691, 690, 2330, 2331, 2372, 2371
635, 650, 651, 692, 691, 2331, 2332, 2373, 2372
636, 651, 652, 693, 692, 2332, 2333, 2374, 2373
637, 652, 653, 694, 693, 2333, 2334, 2375, 2374
638, 653, 654, 695, 694, 2334, 2335, 2376, 2375
639, 654, 655, 696, 695, 2335, 2336, 2377, 2376
640, 655, 656, 697, 696, 2336, 2337, 2378, 2377
641, 657, 658, 699, 698, 2338, 2339, 2380, 2379
642, 658, 659, 700, 699, 2339, 2340, 2381, 2380
643, 659, 660, 701, 700, 2340, 2341, 2382, 2381
644, 660, 661, 702, 701, 2341, 2342, 2383, 2382
645, 661, 662, 703, 702, 2342, 2343, 2384, 2383
646, 662, 663, 704, 703, 2343, 2344, 2385, 2384
647, 663, 664, 705, 704, 2344, 2345, 2386, 2385
648, 664, 665, 706, 705, 2345, 2346, 2387, 2386
649, 665, 666, 707, 706, 2346, 2347, 2388, 2387
650, 666, 667, 708, 707, 2347, 2348, 2389, 2388
651, 667, 668, 709, 708, 2348, 2349, 2390, 2389
652, 668, 669, 710, 709, 2349, 2350, 2391, 2390
653, 669, 670, 711, 710, 2350, 2351, 2392, 2391
654, 670, 671, 712, 711, 2351, 2352, 2393, 2392
655, 671, 672, 713, 712, 2352, 2353, 2394, 2393
656, 672, 673, 714, 713, 2353, 2354, 2395, 2394
657, 673, 674, 715, 714, 2354, 2355, 2396, 2395
658, 674, 675, 716, 715, 2355, 2356, 2397, 2396
659, 675, 676, 717, 716, 2356, 2357, 2398, 2397
660, 676, 677, 718, 717, 2357, 2358, 2399, 2398
661, 677, 678, 719, 718, 2358, 2359, 2400, 2399
662, 678, 679, 720, 719, 2359, 2360, 2401, 2400
663, 679, 680, 721, 720, 2360, 2361, 2402, 2401
664, 680, 681, 722, 721, 2361, 2362, 2403, 2402
665, 681, 682, 723, 722, 2362, 2363, 2404, 2403
666, 682, 683, 724, 723, 2363, 2364, 2405, 2404
667, 683, 684, 725, 724, 2364, 2365, 2406, 2405
668, 684, 685, 726, 725, 2365, 2366, 2407, 2406
669, 685, 686, 727, 726, 2366, 2367, 2408, 2407
670, 686, 687, 728, 727, 2367, 2368, 2409, 2408
671, 687, 688, 729, 728, 2368, 2369, 2410, 2409
672, 688, 689, 730, 729, 2369, 2370, 2411, 2410
673, 689, 690, 731, 730, 2370, 2371, 2412, 2411
674, 690, 691, 732, 731, 2371, 2372, 2413, 2412
675, 691, 692, 733, 732, 2372, 2373, 2414, 2413
676, 692, 693, 734, 733, 2373, 2374, 2415, 2414
677, 693, 694, 735, 734, 2374, 2375, 2416, 2415
678, 694, 695, 736, 735, 2375, 2376, 2417, 2416
679, 695, 696, 737, 736, 2376, 2377, 2418, 2417
680, 696, 697, 738, 737, 2377, 2378, 2419, 2418
681, 698, 699, 740, 739, 2379, 2380, 2421, 2420
682, 699, 700, 741, 740, 2380, 2381, 2422, 2421
683, 700, 701, 742, 741, 2381, 2382, 2423, 2422
684, 701, 702, 743, 742, 2382, 2383, 2424, 2423
685, 702, 703, 744, 743, 2383, 2384, 2425, 2424
686, 703, 704, 745, 744, 2384, 2385, 2426, 2425
687, 704, 705, 746, 745, 2385, 2386, 2427, 2426
688, 705, 706, 747, 746, 2386, 2387, 2428, 2427
689, 706, 707, 748, 747, 2387, 2388, 2429, 2428
690, 707, 708, 749, 748, 2388, 2389, 2430, 2429
691, 708, 709, 750, 749, 2389, 2390, 2431, 2430
692, 709, 710, 751, 750, 2390, 2391, 2432, 2431
693, 710, 711, 752, 751, 2391, 2392, 2433, 2432
694, 711, 712, 753, 752, 2392, 2393, 2434, 2433
695, 712, 713, 754, 753, 2393, 2394, 2435, 2434
696, 713, 714, 755, 754, 2394, 2395, 2436, 2435
697, 714, 715, 756, 755, 2395, 2396, 2437, 2436
698, 715, 716, 757, 756, 2396, 2397, 2438, 2437
699, 716, 717, 758, 757, 2397, 2398, 2439, 2438
700, 717, 718, 759, 758, 2398, 2399, 2440, 2439
701, 718, 719, 760, 759, 2399, 2400, 2441, 2440
702, 719, 720, 761, 760, 2400, 2401, 2442, 2441
703, 720, 721, 762, 761, 2401, 2402, 2443, 2442
704, 721, 722, 763, 762, 2402, 2403, 2444, 2443
705, 722, 723, 764, 763, 2403, 2404, 2445, 2444
706, 723, 724, 765, 764, 2404, 2405, 2446, 2445
707, 724, 725, 766, 765, 2405, 2406, 2447, 2446
708, 725, 726, 767, 766, 2406, 2407, 2448, 2447
709, 726, 727, 768, 767, 2407, 2408, 2449, 2448
710, 727, 728, 769, 768, 2408, 2409, 2450, 2449
711, 728, 729, 770, 769, 2409, 2410, 2451, 2450
712, 729, 730, 771, 770, 2410, 2411, 2452, 2451
713, 730, 731, 772, 771, 2411, 2412, 2453, 2452
714, 731, 732, 773, 772, 2412, 2413, 2454, 2453
715, 732, 733, 774, 773, 2413, 2414, 2455, 2454
716, 733, 734, 775, 774, 2414, 2415, 2456, 2455
717, 734, 735, 776, 775, 2415, 2416, 2457, 2456
718, 735, 736, 777, 776, 2416, 2417, 2458, 2457
719, 736, 737, 778, 777, 2417, 2418, 2459, 2458
720, 737, 738, 779, 778, 2418, 2419, 2460, 2459
721, 739, 740, 781, 780, 2420, 2421, 2462, 2461
722, 740, 741, 782, 781, 2421, 2422, 2463, 2462
723, 741, 742, 783, 782, 2422, 2423, 2464, 2463
724, 742, 743, 784, 783, 2423, 2424, 2465, 2464
725, 743, 744, 785, 784, 2424, 2425, 2466, 2465
726, 744, 745, 786, 785, 2425, 2426, 2467, 2466
727, 745, 746, 787, 786, 2426, 2427, 2468, 2467
728, 746, 747, 788, 787, 2427, 2428, 2469, 2468
729, 747, 748, 789, 788, 2428, 2429, 2470, 2469
730, 748, 749, 790, 789, 2429, 2430, 2471, 2470
731, 749, 750, 791, 790, 2430, 2431, 2472, 2471
732, 750, 751, 792, 791, 2431, 2432, 2473, 2472
733, 751, 752, 793, 792, 2432, 2433, 2474, 2473
734, 752, 753, 794, 793, 2433, 2434, 2475, 2474
735, 753, 754, 795, 794, 2434, 2435, 2476, 2475
736, 754, 755, 796, 795, 2435, 2436, 2477, 2476
737, 755, 756, 797, 796, 2436, 2437, 2478, 2477
738, 756, 757, 798, 797, 2437, 2438, 2479, 2478
739, 757, 758, 799, 798, 2438, 2439, 2480, 2479
740, 758, 759, 800, 799, 2439, 2440, 2481, 2480
741, 759, 760, 801, 800, 2440, 2441, 2482, 2481
742, 760, 761, 802, 801, 2441, 2442, 2483, 2482
743, 761, 762, 803, 802, 2442, 2443, 2484, 2483
744, 762, 763, 804, 803, 2443, 2444, 2485, 2484
745, 763, 764, 805, 804, 2444, 2445, 2486, 2485
746, 764, 765, 806, 805, 2445, 2446, 2487, 2486
747, 765, 766, 807, 806, 2446, 2447, 2488, 2487
748, 766, 767, 808, 807, 2447, 2448, 2489, 2488
749, 767, 768, 809, 808, 2448, 2449, 2490, 2489
750, 768, 769, 810, 809, 2449, 2450, 2491, 2490
751, 769, 770, 811, 810, 2450, 2451, 2492, 2491
752, 770, 771, 812, 811, 2451, 2452, 2493, 2492
753, 771, 772, 813, 812, 2452, 2453, 2494, 2493
754, 772, 773, 814, 813, 2453, 2454, 2495, 2494
755, 773, 774, 815, 814, 2454, 2455, 2496, 2495
756, 774, 775, 816, 815, 2455, 2456, 2497, 2496
757, 775, 776, 817, 816, 2456, 2457, 2498, 2497
758, 776, 777, 818, 817, 2457, 2458, 2499, 2498
759, 777, 778, 819, 818, 2458, 2459, 2500, 2499
760, 778, 779, 820, 819, 2459, 2460, 2501, 2500
761, 780, 781, 822, 821, 2461, 2462, 2503, 2502
762, 781, 782, 823, 822, 2462, 2463, 2504, 2503
763, 782, 783, 824, 823, 2463, 2464, 2505, 2504
764, 783, 784, 825, 824, 2464, 2465, 2506, 2505
765, 784, 785, 826, 825, 2465, 2466, 2507, 2506
766, 785, 786, 827, 826, 2466, 2467, 2508, 2507
767, 786, 787, 828, 827, 2467, 2468, 2509, 2508
768, 787, 788, 829, 828, 2468, 2469, 2510, 2509
769, 788, 789, 830, 829, 2469, 2470, 2511, 2510
770, 789, 790, 831, 830, 2470, 2471, 2512, 2511
771, 790, 791, 832, 831, 2471, 2472, 2513, 2512
772, 791, 792, 833, 832, 2472, 2473, 2514, 2513
773, 792, 793, 834, 833, 2473, 2474, 2515, 2514
774, 793, 794, 835, 834, 2474, 2475, 2516, 2515
775, 794, 795, 836, 835, 2475, 2476, 2517, 2516
776, 795, 796, 837, 836, 2476, 2477, 2518, 2517
777, 796, 797, 838, 837, 2477, 2478, 2519, 2518
778, 797, 798, 839, 838, 2478, 2479, 2520, 2519
779, 798, 799, 840, 839, 2479, 2480, 2521, 2520
780, 799, 800, 841, 840, 2480, 2481, 2522, 2521
781, 800, 801, 842, 841, 2481, 2482, 2523, 2522
782, 801, 802, 843, 842, 2482, 2483, 2524, 2523
783, 802, 803, 844, 843, 2483, 2484, 2525, 2524
784, 803, 804, 845, 844, 2484, 2485, 2526, 2525
785, 804, 805, 846, 845, 2485, 2486, 2527, 2526
786, 805, 806, 847, 846, 2486, 2487, 2528, 2527
787, 806, 807, 848, 847, 2487, 2488, 2529, 2528
788, 807, 808, 849, 848, 2488, 2489, 2530, 2529
789, 808, 809, 850, 849, 2489, 2490, 2531, 2530
790, 809, 810, 851, 850, 2490, 2491, 2532, 2531
791, 810, 811, 852, 851, 2491, 2492, 2533, 2532
792, 811, 812, 853, 852, 2492, 2493, 2534, 2533
793, 812, 813, 854, 853, 2493, 2494, 2535, 2534
794, 813, 814, 855, 854, 2494, 2495, 2536, 2535
795, 814, 815, 856, 855, 2495, 2496, 2537, 2536
796, 815, 816, 857, 856, 2496, 2497, 2538, 2537
797, 816, 817, 858, 857, 2497, 2498, 2539, 2538
798, 817, 818, 859, 858, 2498, 2499, 2540, 2539
799, 818, 819, 860, 859, 2499, 2500, 2541, 2540
800, 819, 820, 861, 860, 2500, 2501, 2542, 2541
801, 821, 822, 863, 862, 2502, 2503, 2544, 2543
802, 822, 823, 864, 863, 2503, 2504, 2545, 2544
803, 823, 824, 865, 864, 2504, 2505, 2546, 2545
804, 824, 825, 866, 865, 2505, 2506, 2547, 2546
805, 825, 826, 867, 866, 2506, 2507, 2548, 2547
806, 826, 827, 868, 867, 2507, 2508, 2549, 2548
807, 827, 828, 869, 868, 2508, 2509, 2550, 2549
808, 828, 829, 870, 869, 2509, 2510, 2551, 2550
809, 829, 830, 871, 870, 2510, 2511, 2552, 2551
810, 830, 831, 872, 871, 2511, 2512, 2553, 2552
811, 831, 832, 873, 872, 2512, 2513, 2554, 2553
812, 832, 833, 874, 873, 2513, 2514, 2555, 2554
813, 833, 834, 875, 874, 2514, 2515, 2556, 2555
814, 834, 835, 876, 875, 2515, 2516, 2557, 2556
815, 835, 836, 877, 876, 2516, 2517, 2558, 2557
816, 836, 837, 878, 877, 2517, 2518, 2559, 2558
817, 837, 838, 879, 878, 2518, 2519, 2560, 2559
818, 838, 839, 880, 879, 2519, 2520, 2561, 2560
819, 839, 840, 881, 880, 2520, 2521, 2562, 2561
820, 840, 841, 882, 881, 2521, 2522, 2563, 2562
821, 841, 842, 883, 882, 2522, 2523, 2564, 2563
822, 842, 843, 884, 883, 2523, 2524, 2565, 2564
823, 843, 844, 885, 884, 2524, 2525, 2566, 2565
824, 844, 845, 886, 885, 2525, 2526, 2567, 2566
825, 845, 846, 887, 886, 2526, 2527, 2568, 2567
826, 846, 847, 888, 887, 2527, 2528, 2569, 2568
827, 847, 848, 889, 888, 2528, 2529, 2570, 2569
828, 848, 849, 890, 889, 2529, 2530, 2571, 2570
829, 849, 850, 891, 890, 2530, 2531, 2572, 2571
830, 850, 851, 892, 891, 2531, 2532, 2573, 2572
831, 851, 852, 893, 892, 2532, 2533, 2574, 2573
832, 852, 853, 894, 893, 2533, 2534, 2575, 2574
833, 853, 854, 895, 894, 2534, 2535, 2576, 2575
834, 854, 855, 896, 895, 2535, 2536, 2577, 2576
835, 855, 856, 897, 896, 2536, 2537, 2578, 2577
836, 856, 857, 898, 897, 2537, 2538, 2579, 2578
837, 857, 858, 899, 898, 2538, 2539, 2580, 2579
838, 858, 859, 900, 899, 2539, 2540, 2581, 2580
839, 859, 860, 901, 900, 2540, 2541, 2582, 2581
840, 860, 861, 902, 901, 2541, 2542, 2583, 2582
841, 862, 863, 904, 903, 2543, 2544, 2585, 2584
842, 863, 864, 905, 904, 2544, 2545, 2586, 2585
843, 864, 865, 906, 905, 2545, 2546, 2587, 2586
844, 865, 866, 907, 906, 2546, 2547, 2588, 2587
845, 866, 867, 908, 907, 2547, 2548, 2589, 2588
846, 867, 868, 909, 908, 2548, 2549, 2590, 2589
847, 868, 869, 910, 909, 2549, 2550, 2591, 2590
848, 869, 870, 911, 910, 2550, 2551, 2592, 2591
849, 870, 871, 912, 911, 2551, 2552, 2593, 2592
850, 871, 872, 913, 912, 2552, 2553, 2594, 2593
851, 872, 873, 914, 913, 2553, 2554, 2595, 2594
852, 873, 874, 915, 914, 2554, 2555, 2596, 2595
853, 874, 875, 916, 915, 2555, 2556, 2597, 2596
854, 875, 876, 917, 916, 2556, 2557, 2598, 2597
855, 876, 877, 918, 917, 2557, 2558, 2599, 2598
856, 877, 878, 919, 918, 2558, 2559, 2600, 2599
857, 878, 879, 920, 919, 2559, 2560, 2601, 2600
858, 879, 880, 921, 920, 2560, 2561, 2602, 2601
859, 880, 881, 922, 921, 2561, 2562, 2603, 2602
860, 881, 882, 923, 922, 2562, 2563, 2604, 2603
861, 882, 883, 924, 923, 2563, 2564, 2605, 2604
862, 883, 884, 925, 924, 2564, 2565, 2606, 2605
863, 884, 885, 926, 925, 2565, 2566, 2607, 2606
864, 885, 886, 927, 926, 2566, 2567, 2608, 2607
865, 886, 887, 928, 927, 2567, 2568, 2609, 2608
866, 887, 888, 929, 928, 2568, 2569, 2610, 2609
867, 888, 889, 930, 929, 2569, 2570, 2611, 2610
868, 889, 890, 931, 930, 2570, 2571, 2612, 2611
869, 890, 891, 932, 931, 2571, 2572, 2613, 2612
870, 891, 892, 933, 932, 2572, 2573, 2614, 2613
871, 892, 893, 934, 933, 2573, 2574, 2615, 2614
872, 893, 894, 935, 934, 2574, 2575, 2616, 2615
873, 894, 895, 936, 935, 2575, 2576, 2617, 2616
874, 895, 896, 937, 936, 2576, 2577, 2618, 2617
875, 896, 897, 938, 937, 2577, 2578, 2619, 2618
876, 897, 898, 939, 938, 2578, 2579, 2620, 2619
877, 898, 899, 940, 939, 2579, 2580, 2621, 2620
878, 899, 900, 941, 940, 2580, 2581, 2622, 2621
879, 900, 901, 942, 941, 2581, 2582, 2623, 2622
880, 901, 902, 943, 942, 2582, 2583, 2624, 2623
881, 903, 904, 945, 944, 2584, 2585, 2626, 2625
882, 904, 905, 946, 945, 2585, 2586, 2627, 2626
883, 905, 906, 947, 946, 2586, 2587, 2628, 2627
884, 906, 907, 948, 947, 2587, 2588, 2629, 2628
885, 907, 908, 949, 948, 2588, 2589, 2630, 2629
886, 908, 909, 950, 949, 2589, 2590, 2631, 2630
887, 909, 910, 951, 950, 2590, 2591, 2632, 2631
888, 910, 911, 952, 951, 2591, 2592, 2633, 2632
889, 911, 912, 953, 952, 2592, 2593, 2634, 2633
890, 912, 913, 954, 953, 2593, 2594, 2635, 2634
891, 913, 914, 955, 954, 2594, 2595, 2636, 2635
892, 914, 915, 956, 955, 2595, 2596, 2637, 2636
893, 915, 916, 957, 956, 2596, 2597, 2638, 2637
894, 916, 917, 958, 957, 2597, 2598, 2639, 2638
895, 917, 918, 959, 958, 2598, 2599, 2640, 2639
896, 918, 919, 960, 959, 2599, 2600, 2641, 2640
897, 919, 920, 961, 960, 2600, 2601, 2642, 2641
898, 920, 921, 962, 961, 2601, 2602, 2643, 2642
899, 921, 922, 963, 962, 2602, 2603, 2644, 2643
900, 922, 923, 964, 963, 2603, 2604, 2645, 2644
901, 923, 924, 965, 964, 2604, 2605, 2646, 2645
902, 924, 925, 966, 965, 2605, 2606, 2647, 2646
903, 925, 926, 967, 966, 2606, 2607, 2648, 2647
904, 926, 927, 968, 967, 2607, 2608, 2649, 2648
905, 927, 928, 969, 968, 2608, 2609, 2650, 2649
906, 928, 929, 970, 969, 2609, 2610, 2651, 2650
907, 929, 930, 971, 970, 2610, 2611, 2652, 2651
908, 930, 931, 972, 971, 2611, 2612, 2653, 2652
909, 931, 932, 973, 972, 2612, 2613, 2654, 2653
910, 932, 933, 974, 973, 2613, 2614, 2655, 2654
911, 933, 934, 975, 974, 2614, 2615, 2656, 2655
912, 934, 935, 976, 975, 2615, 2616, 2657, 2656
913, 935, 936, 977, 976, 2616, 2617, 2658, 2657
914, 936, 937, 978, 977, 2617, 2618, 2659, 2658
915, 937, 938, 979, 978, 2618, 2619, 2660, 2659
916, 938, 939, 980, 979, 2619, 2620, 2661, 2660
917, 939, 940, 981, 980, 2620, 2621, 2662, 2661
918, 940, 941, 982, 981, 2621, 2622, 2663, 2662
919, 941, 942, 983, 982, 2622, 2623, 2664, 2663
920, 942, 943, 984, 983, 2623, 2624, 2665, 2664
921, 944, 945, 986, 985, 2625, 2626, 2667, 2666
922, 945, 946, 987, 986, 2626, 2627, 2668, 2667
923, 946, 947, 988, 987, 2627, 2628, 2669, 2668
924, 947, 948, 989, 988, 2628, 2629, 2670, 2669
925, 948, 949, 990, 989, 2629, 2630, 2671, 2670
926, 949, 950, 991, 990, 2630, 2631, 2672, 2671
927, 950, 951, 992, 991, 2631, 2632, 2673, 2672
928, 951, 952, 993, 992, 2632, 2633, 2674, 2673
929, 952, 953, 994, 993, 2633, 2634, 2675, 2674
930, 953, 954, 995, 994, 2634, 2635, 2676, 2675
931, 954, 955, 996, 995, 2635, 2636, 2677, 2676
932, 955, 956, 997, 996, 2636, 2637, 2678, 2677
933, 956, 957, 998, 997, 2637, 2638, 2679, 2678
934, 957, 958, 999, 998, 2638, 2639, 2680, 2679
935, 958, 959, 1000, 999, 2639, 2640, 2681, 2680
936, 959, 960, 1001, 1000, 2640, 2641, 2682, 2681
937, 960, 961, 1002, 1001, 2641, 2642, 2683, 2682
938, 961, 962, 1003, 1002, 2642, 2643, 2684, 2683
939, 962, 963, 1004, 1003, 2643, 2644, 2685, 2684
940, 963, 964, 1005, 1004, 2644, 2645, 2686, 2685
941, 964, 965, 1006, 1005, 2645, 2646, 2687, 2686
942, 965, 966, 1007, 1006, 2646, 2647, 2688, 2687
943, 966, 967, 1008, 1007, 2647, 2648, 2689, 2688
944, 967, 968, 1009, 1008, 2648, 2649, 2690, 2689
945, 968, 969, 1010, 1009, 2649, 2650, 2691, 2690
946, 969, 970, 1011, 1010, 2650, 2651, 2692, 2691
947, 970, 971, 1012, 1011, 2651, 2652, 2693, 2692
948, 971, 972, 1013, 1012, 2652, 2653, 2694, 2693
949, 972, 973, 1014, 1013, 2653, 2654, 2695, 2694
950, 973, 974, 1015, 1014, 2654, 2655, 2696, 2695
951, 974, 975, 1016, 1015, 2655, 2656, 2697, 2696
952, 975, 976, 1017, 1016, 2656, 2657, 2698, 2697
953, 976, 977, 1018, 1017, 2657, 2658, 2699, 2698
954, 977, 978, 1019, 1018, 2658, 2659, 2700, 2699
955, 978, 979, 1020, 1019, 2659, 2660, 2701, 2700
956, 979, 980, 1021, 1020, 2660, 2661, 2702, 2701
957, 980, 981, 1022, 1021, 2661, 2662, 2703, 2702
958, 981, 982, 1023, 1022, 2662, 2663, 2704, 2703
959, 982, 983, 1024, 1023, 2663, 2664, 2705, 2704
960, 983, 984, 1025, 1024, 2664, 2665, 2706, 2705
961, 985, 986, 1027, 1026, 2666, 2667, 2708, 2707
962, 986, 987, 1028, 1027, 2667, 2668, 2709, 2708
963, 987, 988, 1029, 1028, 2668, 2669, 2710, 2709
964, 988, 989, 1030, 1029, 2669, 2670, 2711, 2710
965, 989, 990, 1031, 1030, 2670, 2671, 2712, 2711
966, 990, 991, 1032, 1031, 2671, 2672, 2713, 2712
967, 991, 992, 1033, 1032, 2672, 2673, 2714, 2713
968, 992, 993, 1034, 1033, 2673, 2674, 2715, 2714
969, 993, 994, 1035, 1034, 2674, 2675, 2716, 2715
970, 994, 995, 1036, 1035, 2675, 2676, 2717, 2716
971, 995, 996, 1037, 1036, 2676, 2677, 2718, 2717
972, 996, 997, 1038, 1037, 2677, 2678, 2719, 2718
973, 997, 998, 1039, 1038, 2678, 2679, 2720, 2719
974, 998, 999, 1040, 1039, 2679, 2680, 2721, 2720
975, 999, 1000, 1041, 1040, 2680, 2681, 2722, 2721
976, 1000, 1001, 1042, 1041, 2681, 2682, 2723, 2722
977, 1001, 1002, 1043, 1042, 2682, 2683, 2724, 2723
978, 1002, 1003, 1044, 1043, 2683, 2684, 2725, 2724
979, 1003, 1004, 1045, 1044, 2684, 2685, 2726, 2725
980, 1004, 1005, 1046, 1045, 2685, 2686, 2727, 2726
981, 1005, 1006, 1047, 1046, 2686, 2687, 2728, 2727
982, 1006, 1007, 1048, 1047, 2687, 2688, 2729, 2728
983, 1007, 1008, 1049, 1048, 2688, 2689, 2730, 2729
984, 1008, 1009, 1050, 1049, 2689, 2690, 2731, 2730
985, 1009, 1010, 1051, 1050, 2690, 2691, 2732, 2731
986, 1010, 1011, 1052, 1051, 2691, 2692, 2733, 2732
987, 1011, 1012, 1053, 1052, 2692, 2693, 2734, 2733
988, 1012, 1013, 1054, 1053, 2693, 2694, 2735, 2734
989, 1013, 1014, 1055, 1054, 2694, 2695, 2736, 2735
990, 1014, 1015, 1056, 1055, 2695, 2696, 2737, 2736
991, 1015, 1016, 1057, 1056, 2696, 2697, 2738, 2737
992, 1016, 1017, 1058, 1057, 2697, 2698, 2739, 2738
993, 1017, 1018, 1059, 1058, 2698, 2699, 2740, 2739
994, 1018, 1019, 1060, 1059, 2699, 2700, 2741, 2740
995, 1019, 1020, 1061, 1060, 2700, 2701, 2742, 2741
996, 1020, 1021, 1062, 1061, 2701, 2702, 2743, 2742
997, 1021, 1022, 1063, 1062, 2702, 2703, 2744, 2743
998, 1022, 1023, 1064, 1063, 2703, 2704, 2745, 2744
999, 1023, 1024, 1065, 1064, 2704, 2705, 2746, 2745
1000, 1024, 1025, 1066, 1065, 2705, 2706, 2747, 2746
1001, 1026, 1027, 1068, 1067, 2707, 2708, 2749, 2748
1002, 1027, 1028, 1069, 1068, 2708, 2709, 2750, 2749
1003, 1028, 1029, 1070, 1069, 2709, 2710, 2751, 2750
1004, 1029, 1030, 1071, 1070, 2710, 2711, 2752, 2751
1005, 1030, 1031, 1072, 1071, 2711, 2712, 2753, 2752
1006, 1031, 1032, 1073, 1072, 2712, 2713, 2754, 2753
1007, 1032, 1033, 1074, 1073, 2713, 2714, 2755, 2754
1008, 1033, 1034, 1075, 1074, 2714, 2715, 2756, 2755
1009, 1034, 1035, 1076, 1075, 2715, 2716, 2757, 2756
1010, 1035, 1036, 1077, 1076, 2716, 2717, 2758, 2757
1011, 1036, 1037, 1078, 1077, 2717, 2718, 2759, 2758
1012, 1037, 1038, 1079, 1078, 2718, 2719, 2760, 2759
1013, 1038, 1039, 1080, 1079, 2719, 2720, 2761, 2760
1014, 1039, 1040, 1081, 1080, 2720, 2721, 2762, 2761
1015, 1040, 1041, 1082, 1081, 2721, 2722, 2763, 2762
1016, 1041, 1042, 1083, 1082, 2722, 2723, 2764, 2763
1017, 1042, 1043, 1084, 1083, 2723, 2724, 2765, 2764
1018, 1043, 1044, 1085, 1084, 2724, 2725, 2766, 2765
1019, 1044, 1045, 1086, 1085, 2725, 2726, 2767, 2766
1020, 1045, 1046, 1087, 1086, 2726, 2727, 2768, 2767
1021, 1046, 1047, 1088, 1087, 2727, 2728, 2769, 2768
1022, 1047, 1048, 1089, 1088, 2728, 2729, 2770, 2769
1023, 1048, 1049, 1090, 1089, 2729, 2730, 2771, 2770
1024, 1049, 1050, 1091, 1090, 2730, 2731, 2772, 2771
1025, 1050, 1051, 1092, 1091, 2731, 2732, 2773, 2772
1026, 1051, 1052, 1093, 1092, 2732, 2733, 2774, 2773
1027, 1052, 1053, 1094, 1093, 2733, 2734, 2775, 2774
1028, 1053, 1054, 1095, 1094, 2734, 2735, 2776, 2775
1029, 1054, 1055, 1096, 1095, 2735, 2736, 2777, 2776
1030, 1055, 1056, 1097, 1096, 2736, 2737, 2778, 2777
1031, 1056, 1057, 1098, 1097, 2737, 2738, 2779, 2778
1032, 1057, 1058, 1099, 1098, 2738, 2739, 2780, 2779
1033, 1058, 1059, 1100, 1099, 2739, 2740, 2781, 2780
1034, 1059, 1060, 1101, 1100, 2740, 2741, 2782, 2781
1035, 1060, 1061, 1102, 1101, 2741, 2742, 2783, 2782
1036, 1061, 1062, 1103, 1102, 2742, 2743, 2784, 2783
1037, 1062, 1063, 1104, 1103, 2743, 2744, 2785, 2784
1038, 1063, 1064, 1105, 1104, 2744, 2745, 2786, 2785
1039, 1064, 1065, 1106, 1105, 2745, 2746, 2787, 2786
1040, 1065, 1066, 1107, 1106, 2746, 2747, 2788, 2787
1041, 1067, 1068, 1109, 1108, 2748, 2749, 2790, 2789
1042, 1068, 1069, 1110, 1109, 2749, 2750, 2791, 2790
1043, 1069, 1070, 1111, 1110, 2750, 2751, 2792, 2791
1044, 1070, 1071, 1112, 1111, 2751, 2752, 2793, 2792
1045, 1071, 1072, 1113, 1112, 2752, 2753, 2794, 2793
1046, 1072, 1073, 1114, 1113, 2753, 2754, 2795, 2794
1047, 1073, 1074, 1115, 1114, 2754, 2755, 2796, 2795
1048, 1074, 1075, 1116, 1115, 2755, 2756, 2797, 2796
1049, 1075, 1076, 1117, 1116, 2756, 2757, 2798, 2797
1050, 1076, 1077, 1118, 1117, 2757, 2758, 2799, 2798
1051, 1077, 1078, 1119, 1118, 2758, 2759, 2800, 2799
1052, 1078, 1079, 1120, 1119, 2759, 2760, 2801, 2800
1053, 1079, 1080, 1121, 1120, 2760, 2761, 2802, 2801
1054, 1080, 1081, 1122, 1121, 2761, 2762, 2803, 2802
1055, 1081, 1082, 1123, 1122, 2762, 2763, 2804, 2803
1056, 1082, 1083, 1124, 1123, 2763, 2764, 2805, 2804
1057, 1083, 1084, 1125, 1124, 2764, 2765, 2806, 2805
1058, 1084, 1085, 1126, 1125, 2765, 2766, 2807, 2806
1059, 1085, 1086, 1127, 1126, 2766, 2767, 2808, 2807
1060, 1086, 1087, 1128, 1127, 2767, 2768, 2809, 2808
1061, 1087, 1088, 1129, 1128, 2768, 2769, 2810, 2809
1062, 1088, 1089, 1130, 1129, 2769, 2770, 2811, 2810
1063, 1089, 1090, 1131, 1130, 2770, 2771, 2812, 2811
1064, 1090, 1091, 1132, 1131, 2771, 2772, 2813, 2812
1065, 1091, 1092, 1133, 1132, 2772, 2773, 2814, 2813
1066, 1092, 1093, 1134, 1133, 2773, 2774, 2815, 2814
1067, 1093, 1094, 1135, 1134, 2774, 2775, 2816, 2815
1068, 1094, 1095, 1136, 1135, 2775, 2776, 2817, 2816
1069, 1095, 1096, 1137, 1136, 2776, 2777, 2818, 2817
1070, 1096, 1097, 1138, 1137, 2777, 2778, 2819, 2818
1071, 1097, 1098, 1139, 1138, 2778, 2779, 2820, 2819
1072, 1098, 1099, 1140, 1139, 2779, 2780, 2821, 2820
1073, 1099, 1100, 1141, 1140, 2780, 2781, 2822, 2821
1074, 1100, 1101, 1142, 1141, 2781, 2782, 2823, 2822
1075, 1101, 1102, 1143, 1142, 2782, 2783, 2824, 2823
1076, 1102, 1103, 1144, 1143, 2783, 2784, 2825, 2824
1077, 1103, 1104, 1145, 1144, 2784, 2785, 2826, 2825
1078, 1104, 1105, 1146, 1145, 2785, 2786, 2827, 2826
1079, 1105, 1106, 1147, 1146, 2786, 2787, 2828, 2827
1080, 1106, 1107, 1148, 1147, 2787, 2788, 2829, 2828
1081, 1108, 1109, 1150, 1149, 2789, 2790, 2831, 2830
1082, 1109, 1110, 1151, 1150, 2790, 2791, 2832, 2831
1083, 1110, 1111, 1152, 1151, 2791, 2792, 2833, 2832
1084, 1111, 1112, 1153, 1152, 2792, 2793, 2834, 2833
1085, 1112, 1113, 1154, 1153, 2793, 2794, 2835, 2834
1086, 1113, 1114, 1155, 1154, 2794, 2795, 2836, 2835
1087, 1114, 1115, 1156, 1155, 2795, 2796, 2837, 2836
1088, 1115, 1116, 1157, 1156, 2796, 2797, 2838, 2837
1089, 1116, 1117, 1158, 1157, 2797, 2798, 2839, 2838
1090, 1117, 1118, 1159, 1158, 2798, 2799, 2840, 2839
1091, 1118, 1119, 1160, 1159, 2799, 2800, 2841, 2840
1092, 1119, 1120, 1161, 1160, 2800, 2801, 2842, 2841
1093, 1120, 1121, 1162, 1161, 2801, 2802, 2843, 2842
1094, 1121, 1122, 1163, 1162, 2802, 2803, 2844, 2843
1095, 1122, 1123, 1164, 1163, 2803, 2804, 2845, 2844
1096, 1123, 1124, 1165, 1164, 2804, 2805, 2846, 2845
1097, 1124, 1125, 1166, 1165, 2805, 2806, 2847, 2846
1098, 1125, 1126, 1167, 1166, 2806, 2807, 2848, 2847
1099, 1126, 1127, 1168, 1167, 2807, 2808, 2849, 2848
1100, 1127, 1128, 1169, 1168, 2808, 2809, 2850, 2849
1101, 1128, 1129, 1170, 1169, 2809, 2810, 2851, 2850
1102, 1129, 1130, 1171, 1170, 2810, 2811, 2852, 2851
1103, 1130, 1131, 1172, 1171, 2811, 2812, 2853, 2852
1104, 1131, 1132, 1173, 1172, 2812, 2813, 2854, 2853
1105, 1132, 1133, 1174, 1173, 2813, 2814, 2855, 2854
1106, 1133, 1134, 1175, 1174, 2814, 2815, 2856, 2855
1107, 1134, 1135, 1176, 1175, 2815, 2816, 2857, 2856
1108, 1135, 1136, 1177, 1176, 2816, 2817, 2858, 2857
1109, 1136, 1137, 1178, 1177, 2817, 2818, 2859, 2858
1110, 1137, 1138, 1179, 1178, 2818, 2819, 2860, 2859
1111, 1138, 1139, 1180, 1179, 2819, 2820, 2861, 2860
1112, 1139, 1140, 1181, 1180, 2820, 2821, 2862, 2861
1113, 1140, 1141, 1182, 1181, 2821, 2822, 2863, 2862
1114, 1141, 1142, 1183, 1182, 2822, 2823, 2864, 2863
1115, 1142, 1143, 1184, 1183, 2823, 2824, 2865, 2864
1116, 1143, 1144, 1185, 1184, 2824, 2825, 2866, 2865
1117, 1144, 1145, 1186, 1185, 2825, 2826, 2867, 2866
1118, 1145, 1146, 1187, 1186, 2826, 2827, 2868, 2867
1119, 1146, 1147, 1188, 1187, 2827, 2828, 2869, 2868
1120, 1147, 1148, 1189, 1188, 2828, 2829, 2870, 2869
1121, 1149, 1150, 1191, 1190, 2830, 2831, 2872, 2871
1122, 1150, 1151, 1192, 1191, 2831, 2832, 2873, 2872
1123, 1151, 1152, 1193, 1192, 2832, 2833, 2874, 2873
1124, 1152, 1153, 1194, 1193, 2833, 2834, 2875, 2874
1125, 1153, 1154, 1195, 1194, 2834, 2835, 2876, 2875
1126, 1154, 1155, 1196, 1195, 2835, 2836, 2877, 2876
1127, 1155, 1156, 1197, 1196, 2836, 2837, 2878, 2877
1128, 1156, 1157, 1198, 1197, 2837, 2838, 2879, 2878
1129, 1157, 1158, 1199, 1198, 2838, 2839, 2880, 2879
1130, 1158, 1159, 1200, 1199, 2839, 2840, 2881, 2880
1131, 1159, 1160, 1201, 1200, 2840, 2841, 2882, 2881
1132, 1160, 1161, 1202, 1201, 2841, 2842, 2883, 2882
1133, 1161, 1162, 1203, 1202, 2842, 2843, 2884, 2883
1134, 1162, 1163, 1204, 1203, 2843, 2844, 2885, 2884
1135, 1163, 1164, 1205, 1204, 2844, 2845, 2886, 2885
1136, 1164, 1165, 1206, 1205, 2845, 2846, 2887, 2886
1137, 1165, 1166, 1207, 1206, 2846, 2847, 2888, 2887
1138, 1166, 1167, 1208, 1207, 2847, 2848, 2889, 2888
1139, 1167, 1168, 1209, 1208, 2848, 2849, 2890, 2889
1140, 1168, 1169, 1210, 1209, 2849, 2850, 2891, 2890
1141, 1169, 1170, 1211, 1210, 2850, 2851, 2892, 2891
1142, 1170, 1171, 1212, 1211, 2851, 2852, 2893, 2892
1143, 1171, 1172, 1213, 1212, 2852, 2853, 2894, 2893
1144, 1172, 1173, 1214, 1213, 2853, 2854, 2895, 2894
1145, 1173, 1174, 1215, 1214, 2854, 2855, 2896, 2895
1146, 1174, 1175, 1216, 1215, 2855, 2856, 2897, 2896
1147, 1175, 1176, 1217, 1216, 2856, 2857, 2898, 2897
1148, 1176, 1177, 1218, 1217, 2857, 2858, 2899, 2898
1149, 1177, 1178, 1219, 1218, 2858, 2859, 2900, 2899
1150, 1178, 1179, 1220, 1219, 2859, 2860, 2901, 2900
1151, 1179, 1180, 1221, 1220, 2860, 2861, 2902, 2901
1152, 1180, 1181, 1222, 1221, 2861, 2862, 2903, 2902
1153, 1181, 1182, 1223, 1222, 2862, 2863, 2904, 2903
1154, 1182, 1183, 1224, 1223, 2863, 2864, 2905, 2904
1155, 1183, 1184, 1225, 1224, 2864, 2865, 2906, 2905
1156, 1184, 1185, 1226, 1225, 2865, 2866, 2907, 2906
1157, 1185, 1186, 1227, 1226, 2866, 2867, 2908, 2907
1158, 1186, 1187, 1228, 1227, 2867, 2868, 2909, 2908
1159, 1187, 1188, 1229, 1228, 2868, 2869, 2910, 2909
1160, 1188, 1189, 1230, 1229, 2869, 2870, 2911, 2910
1161, 1190, 1191, 1232, 1231, 2871, 2872, 2913, 2912
1162, 1191, 1192, 1233, 1232, 2872, 2873, 2914, 2913
1163, 1192, 1193, 1234, 1233, 2873, 2874, 2915, 2914
1164, 1193, 1194, 1235, 1234, 2874, 2875, 2916, 2915
1165, 1194, 1195, 1236, 1235, 2875, 2876, 2917, 2916
1166, 1195, 1196, 1237, 1236, 2876, 2877, 2918, 2917
1167, 1196, 1197, 1238, 1237, 2877, 2878, 2919, 2918
1168, 1197, 1198, 1239, 1238, 2878, 2879, 2920, 2919
1169, 1198, 1199, 1240, 1239, 2879, 2880, 2921, 2920
1170, 1199, 1200, 1241, 1240, 2880, 2881, 2922, 2921
1171, 1200, 1201, 1242, 1241, 2881, 2882, 2923, 2922
1172, 1201, 1202, 1243, 1242, 2882, 2883, 2924, 2923
1173, 1202, 1203, 1244, 1243, 2883, 2884, 2925, 2924
1174, 1203, 1204, 1245, 1244, 2884, 2885, 2926, 2925
1175, 1204, 1205, 1246, 1245, 2885, 2886, 2927, 2926
1176, 1205, 1206, 1247, 1246, 2886, 2887, 2928, 2927
1177, 1206, 1207, 1248, 1247, 2887, 2888, 2929, 2928
1178, 1207, 1208, 1249, 1248, 2888, 2889, 2930, 2929
1179, 1208, 1209, 1250, 1249, 2889, 2890, 2931, 2930
1180, 1209, 1210, 1251, 1250, 2890, 2891, 2932, 2931
1181, 1210, 1211, 1252, 1251, 2891, 2892, 2933, 2932
1182, 1211, 1212, 1253, 1252, 2892, 2893, 2934, 2933
1183, 1212, 1213, 1254, 1253, 2893, 2894, 2935, 2934
1184, 1213, 1214, 1255, 1254, 2894, 2895, 2936, 2935
1185, 1214, 1215, 1256, 1255, 2895, 2896, 2937, 2936
1186, 1215, 1216, 1257, 1256, 2896, 2897, 2938, 2937
1187, 1216, 1217, 1258, 1257, 2897, 2898, 2939, 2938
1188, 1217, 1218, 1259, 1258, 2898, 2899, 2940, 2939
1189, 1218, 1219, 1260, 1259, 2899, 2900, 2941, 2940
1190, 1219, 1220, 1261, 1260, 2900, 2901, 2942, 2941
1191, 1220, 1221, 1262, 1261, 2901, 2902, 2943, 2942
1192, 1221, 1222, 1263, 1262, 2902, 2903, 2944, 2943
1193, 1222, 1223, 1264, 1263, 2903, 2904, 2945, 2944
1194, 1223, 1224, 1265, 1264, 2904, 2905, 2946, 2945
1195, 1224, 1225, 1266, 1265, 2905, 2906, 2947, 2946
1196, 1225, 1226, 1267, 1266, 2906, 2907, 2948, 2947
1197, 1226, 1227, 1268, 1267, 2907, 2908, 2949, 2948
1198, 1227, 1228, 1269, 1268, 2908, 2909, 2950, 2949
1199, 1228, 1229, 1270, 1269, 2909, 2910, 2951, 2950
1200, 1229, 1230, 1271, 1270, 2910, 2911, 2952, 2951
1201, 1231, 1232, 1273, 1272, 2912, 2913, 2954, 2953
1202, 1232, 1233, 1274, 1273, 2913, 2914, 2955, 2954
1203, 1233, 1234, 1275, 1274, 2914, 2915, 2956, 2955
1204, 1234, 1235, 1276, 1275, 2915, 2916, 2957, 2956
1205, 1235, 1236, 1277, 1276, 2916, 2917, 2958, 2957
1206, 1236, 1237, 1278, 1277, 2917, 2918, 2959, 2958
1207, 1237, 1238, 1279, 1278, 2918, 2919, 2960, 2959
1208, 1238, 1239, 1280, 1279, 2919, 2920, 2961, 2960
1209, 1239, 1240, 1281, 1280, 2920, 2921, 2962, 2961
1210, 1240, 1241, 1282, 1281, 2921, 2922, 2963, 2962
1211, 1241, 1242, 1283, 1282, 2922, 2923, 2964, 2963
1212, 1242, 1243, 1284, 1283, 2923, 2924, 2965, 2964
1213, 1243, 1244, 1285, 1284, 2924, 2925, 2966, 2965
1214, 1244, 1245, 1286, 1285, 2925, 2926, 2967, 2966
1215, 1245, 1246, 1287, 1286, 2926, 2927, 2968, 2967
1216, 1246, 1247, 1288, 1287, 2927, 2928, 2969, 2968
1217, 1247, 1248, 1289, 1288, 2928, 2929, 2970, 2969
1218, 1248, 1249, 1290, 1289, 2929, 2930, 2971, 2970
1219, 1249, 1250, 1291, 1290, 2930, 2931, 2972, 2971
1220, 1250, 1251, 1292, 1291, 2931, 2932, 2973, 2972
1221, 1251, 1252, 1293, 1292, 2932, 2933, 2974, 2973
1222, 1252, 1253, 1294, 1293, 2933, 2934, 2975, 2974
1223, 1253, 1254, 1295, 1294, 2934, 2935, 2976, 2975
1224, 1254, 1255, 1296, 1295, 2935, 2936, 2977, 2976
1225, 1255, 1256, 1297, 1296, 2936, 2937, 2978, 2977
1226, 1256, 1257, 1298, 1297, 2937, 2938, 2979, 2978
1227, 1257, 1258, 1299, 1298, 2938, 2939, 2980, 2979
1228, 1258, 1259, 1300, 1299, 2939, 2940, 2981, 2980
1229, 1259, 1260, 1301, 1300, 2940, 2941, 2982, 2981
1230, 1260, 1261, 1302, 1301, 2941, 2942, 2983, 2982
1231, 1261, 1262, 1303, 1302, 2942, 2943, 2984, 2983
1232, 1262, 1263, 1304, 1303, 2943, 2944, 2985, 2984
1233, 1263, 1264, 1305, 1304, 2944, 2945, 2986, 2985
1234, 1264, 1265, 1306, 1305, 2945, 2946, 2987, 2986
1235, 1265, 1266, 1307, 1306, 2946, 2947, 2988, 2987
1236, 1266, 1267, 1308, 1307, 2947, 2948, 2989, 2988
1237, 1267, 1268, 1309, 1308, 2948, 2949, 2990, 2989
1238, 1268, 1269, 1310, 1309, 2949, 2950, 2991, 2990
1239, 1269, 1270, 1311, 1310, 2950, 2951, 2992, 2991
1240, 1270, 1271, 1312, 1311, 2951, 2952, 2993, 2992
1241, 1272, 1273, 1314, 1313, 2953, 2954, 2995, 2994
1242, 1273, 1274, 1315, 1314, 2954, 2955, 2996, 2995
1243, 1274, 1275, 1316, 1315, 2955, 2956, 2997, 2996
1244, 1275, 1276, 1317, 1316, 2956, 2957, 2998, 2997
1245, 1276, 1277, 1318, 1317, 2957, 2958, 2999, 2998
1246, 1277, 1278, 1319, 1318, 2958, 2959, 3000, 2999
1247, 1278, 1279, 1320, 1319, 2959, 2960, 3001, 3000
1248, 1279, 1280, 1321, 1320, 2960, 2961, 3002, 3001
1249, 1280, 1281, 1322, 1321, 2961, 2962, 3003, 3002
1250, 1281, 1282, 1323, 1322, 2962, 2963, 3004, 3003
1251, 1282, 1283, 1324, 1323, 2963, 2964, 3005, 3004
1252, 1283, 1284, 1325, 1324, 2964, 2965, 3006, 3005
1253, 1284, 1285, 1326, 1325, 2965, 2966, 3007, 3006
1254, 1285, 1286, 1327, 1326, 2966, 2967, 3008, 3007
1255, 1286, 1287, 1328, 1327, 2967, 2968, 3009, 3008
1256, 1287, 1288, 1329, 1328, 2968, 2969, 3010, 3009
1257, 1288, 1289, 1330, 1329, 2969, 2970, 3011, 3010
1258, 1289, 1290, 1331, 1330, 2970, 2971, 3012, 3011
1259, 1290, 1291, 1332, 1331, 2971, 2972, 3013, 3012
1260, 1291, 1292, 1333, 1332, 2972, 2973, 3014, 3013
1261, 1292, 1293, 1334, 1333, 2973, 2974, 3015, 3014
1262, 1293, 1294, 1335, 1334, 2974, 2975, 3016, 3015
1263, 1294, 1295, 1336, 1335, 2975, 2976, 3017, 3016
1264, 1295, 1296, 1337, 1336, 2976, 2977, 3018, 3017
1265, 1296, 1297, 1338, 1337, 2977, 2978, 3019, 3018
1266, 1297, 1298, 1339, 1338, 2978, 2979, 3020, 3019
1267, 1298, 1299, 1340, 1339, 2979, 2980, 3021, 3020
1268, 1299, 1300, 1341, 1340, 2980, 2981, 3022, 3021
1269, 1300, 1301, 1342, 1341, 2981, 2982, 3023, 3022
1270, 1301, 1302, 1343, 1342, 2982, 2983, 3024, 3023
1271, 1302, 1303, 1344, 1343, 2983, 2984, 3025, 3024
1272, 1303, 1304, 1345, 1344, 2984, 2985, 3026, 3025
1273, 1304, 1305, 1346, 1345, 2985, 2986, 3027, 3026
1274, 1305, 1306, 1347, 1346, 2986, 2987, 3028, 3027
1275, 1306, 1307, 1348, 1347, 2987, 2988, 3029, 3028
1276, 1307, 1308, 1349, 1348, 2988, 2989, 3030, 3029
1277, 1308, 1309, 1350, 1349, 2989, 2990, 3031, 3030
1278, 1309, 1310, 1351, 1350, 2990, 2991, 3032, 3031
1279, 1310, 1311, 1352, 1351, 2991, 2992, 3033, 3032
1280, 1311, 1312, 1353, 1352, 2992, 2993, 3034, 3033
1281, 1313, 1314, 1355, 1354, 2994, 2995, 3036, 3035
1282, 1314, 1315, 1356, 1355, 2995, 2996, 3037, 3036
1283, 1315, 1316, 1357, 1356, 2996, 2997, 3038, 3037
1284, 1316, 1317, 1358, 1357, 2997, 2998, 3039, 3038
1285, 1317, 1318, 1359, 1358, 2998, 2999, 3040, 3039
1286, 1318, 1319, 1360, 1359, 2999, 3000, 3041, 3040
1287, 1319, 1320, 1361, 1360, 3000, 3001, 3042, 3041
1288, 1320, 1321, 1362, 1361, 3001, 3002, 3043, 3042
1289, 1321, 1322, 1363, 1362, 3002, 3003, 3044, 3043
1290, 1322, 1323, 1364, 1363, 3003, 3004, 3045, 3044
1291, 1323, 1324, 1365, 1364, 3004, 3005, 3046, 3045
1292, 1324, 1325, 1366, 1365, 3005, 3006, 3047, 3046
1293, 1325, 1326, 1367, 1366, 3006, 3007, 3048, 3047
1294, 1326, 1327, 1368, 1367, 3007, 3008, 3049, 3048
1295, 1327, 1328, 1369, 1368, 3008, 3009, 3050, 3049
1296, 1328, 1329, 1370, 1369, 3009, 3010, 3051, 3050
1297, 1329, 1330, 1371, 1370, 3010, 3011, 3052, 3051
1298, 1330, 1331, 1372, 1371, 3011, 3012, 3053, 3052
1299, 1331, 1332, 1373, 1372, 3012, 3013, 3054, 3053
1300, 1332, 1333, 1374, 1373, 3013, 3014, 3055, 3054
1301, 1333, 1334, 1375, 1374, 3014, 3015, 3056, 3055
1302, 1334, 1335, 1376, 1375, 3015, 3016, 3057, 3056
1303, 1335, 1336, 1377, 1376, 3016, 3017, 3058, 3057
1304, 1336, 1337, 1378, 1377, 3017, 3018, 3059, 3058
1305, 1337, 1338, 1379, 1378, 3018, 3019, 3060, 3059
1306, 1338, 1339, 1380, 1379, 3019, 3020, 3061, 3060
1307, 1339, 1340, 1381, 1380, 3020, 3021, 3062, 3061
1308, 1340, 1341, 1382, 1381, 3021, 3022, 3063, 3062
1309, 1341, 1342, 1383, 1382, 3022, 3023, 3064, 3063
1310, 1342, 1343, 1384, 1383, 3023, 3024, 3065, 3064
1311, 1343, 1344, 1385, 1384, 3024, 3025, 3066, 3065
1312, 1344, 1345, 1386, 1385, 3025, 3026, 3067, 3066
1313, 1345, 1346, 1387, 1386, 3026, 3027, 3068, 3067
1314, 1346, 1347, 1388, 1387, 3027, 3028, 3069, 3068
1315, 1347, 1348, 1389, 1388, 3028, 3029, 3070, 3069
1316, 1348, 1349, 1390, 1389, 3029, 3030, 3071, 3070
1317, 1349, 1350, 1391, 1390, 3030, 3031, 3072, 3071
1318, 1350, 1351, 1392, 1391, 3031, 3032, 3073, 3072
1319, 1351, 1352, 1393, 1392, 3032, 3033, 3074, 3073
1320, 1352, 1353, 1394, 1393, 3033, 3034, 3075, 3074
1321, 1354, 1355, 1396, 1395, 3035, 3036, 3077, 3076
1322, 1355, 1356, 1397, 1396, 3036, 3037, 3078, 3077
1323, 1356, 1357, 1398, 1397, 3037, 3038, 3079, 3078
1324, 1357, 1358, 1399, 1398, 3038, 3039, 3080, 3079
1325, 1358, 1359, 1400, 1399, 3039, 3040, 3081, 3080
1326, 1359, 1360, 1401, 1400, 3040, 3041, 3082, 3081
1327, 1360, 1361, 1402, 1401, 3041, 3042, 3083, 3082
1328, 1361, 1362, 1403, 1402, 3042, 3043, 3084, 3083
1329, 1362, 1363, 1404, 1403, 3043, 3044, 3085, 3084
1330, 1363, 1364, 1405, 1404, 3044, 3045, 3086, 3085
1331, 1364, 1365, 1406, 1405, 3045, 3046, 3087, 3086
1332, 1365, 1366, 1407, 1406, 3046, 3047, 3088, 3087
1333, 1366, 1367, 1408, 1407, 3047, 3048, 3089, 3088
1334, 1367, 1368, 1409, 1408, 3048, 3049, 3090, 3089
1335, 1368, 1369, 1410, 1409, 3049, 3050, 3091, 3090
1336, 1369, 1370, 1411, 1410, 3050, 3051, 3092, 3091
1337, 1370, 1371, 1412, 1411, 3051, 3052, 3093, 3092
1338, 1371, 1372, 1413, 1412, 3052, 3053, 3094, 3093
1339, 1372, 1373, 1414, 1413, 3053, 3054, 3095, 3094
1340, 1373, 1374, 1415, 1414, 3054, 3055, 3096, 3095
1341, 1374, 1375, 1416, 1415, 3055, 3056, 3097, 3096
1342, 1375, 1376, 1417, 1416, 3056, 3057, 3098, 3097
1343, 1376, 1377, 1418, 1417, 3057, 3058, 3099, 3098
1344, 1377, 1378, 1419, 1418, 3058, 3059, 3100, 3099
1345, 1378, 1379, 1420, 1419, 3059, 3060, 3101, 3100
1346, 1379, 1380, 1421, 1420, 3060, 3061, 3102, 3101
1347, 1380, 1381, 1422, 1421, 3061, 3062, 3103, 3102
1348, 1381, 1382, 1423, 1422, 3062, 3063, 3104, 3103
1349, 1382, 1383, 1424, 1423, 3063, 3064, 3105, 3104
1350, 1383, 1384, 1425, 1424, 3064, 3065, 3106, 3105
1351, 1384, 1385, 1426, 1425, 3065, 3066, 3107, 3106
1352, 1385, 1386, 1427, 1426, 3066, 3067, 3108, 3107
1353, 1386, 1387, 1428, 1427, 3067, 3068, 3109, 3108
1354, 1387, 1388, 1429, 1428, 3068, 3069, 3110, 3109
1355, 1388, 1389, 1430, 1429, 3069, 3070, 3111, 3110
1356, 1389, 1390, 1431, 1430, 3070, 3071, 3112, 3111
1357, 1390, 1391, 1432, 1431, 3071, 3072, 3113, 3112
1358, 1391, 1392, 1433, 1432, 3072, 3073, 3114, 3113
1359, 1392, 1393, 1434, 1433, 3073, 3074, 3115, 3114
1360, 1393, 1394, 1435, 1434, 3074, 3075, 3116, 3115
1361, 1395, 1396, 1437, 1436, 3076, 3077, 3118, 3117
1362, 1396, 1397, 1438, 1437, 3077, 3078, 3119, 3118
1363, 1397, 1398, 1439, 1438, 3078, 3079, 3120, 3119
1364, 1398, 1399, 1440, 1439, 3079, 3080, 3121, 3120
1365, 1399, 1400, 1441, 1440, 3080, 3081, 3122, 3121
1366, 1400, 1401, 1442, 1441, 3081, 3082, 3123, 3122
1367, 1401, 1402, 1443, 1442, 3082, 3083, 3124, 3123
1368, 1402, 1403, 1444, 1443, 3083, 3084, 3125, 3124
1369, 1403, 1404, 1445, 1444, 3084, 3085, 3126, 3125
1370, 1404, 1405, 1446, 1445, 3085, 3086, 3127, 3126
1371, 1405, 1406, 1447, 1446, 3086, 3087, 3128, 3127
1372, 1406, 1407, 1448, 1447, 3087, 3088, 3129, 3128
1373, 1407, 1408, 1449, 1448, 3088, 3089, 3130, 3129
1374, 1408, 1409, 1450, 1449, 3089, 3090, 3131, 3130
1375, 1409, 1410, 1451, 1450, 3090, 3091, 3132, 3131
1376, 1410, 1411, 1452, 1451, 3091, 3092, 3133, 3132
1377, 1411, 1412, 1453, 1452, 3092, 3093, 3134, 3133
1378, 1412, 1413, 1454, 1453, 3093, 3094, 3135, 3134
1379, 1413, 1414, 1455, 1454, 3094, 3095, 3136, 3135
1380, 1414, 1415, 1456, 1455, 3095, 3096, 3137, 3136
1381, 1415, 1416, 1457, 1456, 3096, 3097, 3138, 3137
1382, 1416, 1417, 1458, 1457, 3097, 3098, 3139, 3138
1383, 1417, 1418, 1459, 1458, 3098, 3099, 3140, 3139
1384, 1418, 1419, 1460, 1459, 3099, 3100, 3141, 3140
1385, 1419, 1420, 1461, 1460, 3100, 3101, 3142, 3141
1386, 1420, 1421, 1462, 1461, 3101, 3102, 3143, 3142
1387, 1421, 1422, 1463, 1462, 3102, 3103, 3144, 3143
1388, 1422, 1423, 1464, 1463, 3103, 3104, 3145, 3144
1389, 1423, 1424, 1465, 1464, 3104, 3105, 3146, 3145
1390, 1424, 1425, 1466, 1465, 3105, 3106, 3147, 3146
1391, 1425, 1426, 1467, 1466, 3106, 3107, 3148, 3147
1392, 1426, 1427, 1468, 1467, 3107, 3108, 3149, 3148
1393, 1427, 1428, 1469, 1468, 3108, 3109, 3150, 3149
1394, 1428, 1429, 1470, 1469, 3109, 3110, 3151, 3150
1395, 1429, 1430, 1471, 1470, 3110, 3111, 3152, 3151
1396, 1430, 1431, 1472, 1471, 3111, 3112, 3153, 3152
1397, 1431, 1432, 1473, 1472, 3112, 3113, 3154, 3153
1398, 1432, 1433, 1474, 1473, 3113, 3114, 3155, 3154
1399, 1433, 1434, 1475, 1474, 3114, 3115, 3156, 3155
1400, 1434, 1435, 1476, 1475, 3115, 3116, 3157, 3156
1401, 1436, 1437, 1478, 1477, 3117, 3118, 3159, 3158
1402, 1437, 1438, 1479, 1478, 3118, 3119, 3160, 3159
1403, 1438, 1439, 1480, 1479, 3119, 3120, 3161, 3160
1404, 1439, 1440, 1481, 1480, 3120, 3121, 3162, 3161
1405, 1440, 1441, 1482, 1481, 3121, 3122, 3163, 3162
1406, 1441, 1442, 1483, 1482, 3122, 3123, 3164, 3163
1407, 1442, 1443, 1484, 1483, 3123, 3124, 3165, 3164
1408, 1443, 1444, 1485, 1484, 3124, 3125, 3166, 3165
1409, 1444, 1445, 1486, 1485, 3125, 3126, 3167, 3166
1410, 1445, 1446, 1487, 1486, 3126, 3127, 3168, 3167
1411, 1446, 1447, 1488, 1487, 3127, 3128, 3169, 3168
1412, 1447, 1448, 1489, 1488, 3128, 3129, 3170, 3169
1413, 1448, 1449, 1490, 1489, 3129, 3130, 3171, 3170
1414, 1449, 1450, 1491, 1490, 3130, 3131, 3172, 3171
1415, 1450, 1451, 1492, 1491, 3131, 3132, 3173, 3172
1416, 1451, 1452, 1493, 1492, 3132, 3133, 3174, 3173
1417, 1452, 1453, 1494, 1493, 3133, 3134, 3175, 3174
1418, 1453, 1454, 1495, 1494, 3134, 3135, 3176, 3175
1419, 1454, 1455, 1496, 1495, 3135, 3136, 3177, 3176
1420, 1455, 1456, 1497, 1496, 3136, 3137, 3178, 3177
1421, 1456, 1457, 1498, 1497, 3137, 3138, 3179, 3178
1422, 1457, 1458, 1499, 1498, 3138, 3139, 3180, 3179
1423, 1458, 1459, 1500, 1499, 3139, 3140, 3181, 3180
1424, 1459, 1460, 1501, 1500, 3140, 3141, 3182, 3181
1425, 1460, 1461, 1502, 1501, 3141, 3142, 3183, 3182
1426, 1461, 1462, 1503, 1502, 3142, 3143, 3184, 3183
1427, 1462, 1463, 1504, 1503, 3143, 3144, 3185, 3184
1428, 1463, 1464, 1505, 1504, 3144, 3145, 3186, 3185
1429, 1464, 1465, 1506, 1505, 3145, 3146, 3187, 3186
1430, 1465, 1466, 1507, 1506, 3146, 3147, 3188, 3187
1431, 1466, 1467, 1508, 1507, 3147, 3148, 3189, 3188
1432, 1467, 1468, 1509, 1508, 3148, 3149, 3190, 3189
1433, 1468, 1469, 1510, 1509, 3149, 3150, 3191, 3190
1434, 1469, 1470, 1511, 1510, 3150, 3151, 3192, 3191
1435, 1470, 1471, 1512, 1511, 3151, 3152, 3193, 3192
1436, 1471, 1472, 1513, 1512, 3152, 3153, 3194, 3193
1437, 1472, 1473, 1514, 1513, 3153, 3154, 3195, 3194
1438, 1473, 1474, 1515, 1514, 3154, 3155, 3196, 3195
1439, 1474, 1475, 1516, 1515, 3155, 3156, 3197, 3196
1440, 1475, 1476, 1517, 1516, 3156, 3157, 3198, 3197
1441, 1477, 1478, 1519, 1518, 3158, 3159, 3200, 3199
1442, 1478, 1479, 1520, 1519, 3159, 3160, 3201, 3200
1443, 1479, 1480, 1521, 1520, 3160, 3161, 3202, 3201
1444, 1480, 1481, 1522, 1521, 3161, 3162, 3203, 3202
1445, 1481, 1482, 1523, 1522, 3162, 3163, 3204, 3203
1446, 1482, 1483, 1524, 1523, 3163, 3164, 3205, 3204
1447, 1483, 1484, 1525, 1524, 3164, 3165, 3206, 3205
1448, 1484, 1485, 1526, 1525, 3165, 3166, 3207, 3206
1449, 1485, 1486, 1527, 1526, 3166, 3167, 3208, 3207
1450, 1486, 1487, 1528, 1527, 3167, 3168, 3209, 3208
1451, 1487, 1488, 1529, 1528, 3168, 3169, 3210, 3209
1452, 1488, 1489, 1530, 1529, 3169, 3170, 3211, 3210
1453, 1489, 1490, 1531, 1530, 3170, 3171, 3212, 3211
1454, 1490, 1491, 1532, 1531, 3171, 3172, 3213, 3212
1455, 1491, 1492, 1533, 1532, 3172, 3173, 3214, 3213
1456, 1492, 1493, 1534, 1533, 3173, 3174, 3215, 3214
1457, 1493, 1494, 1535, 1534, 3174, 3175, 3216, 3215
1458, 1494, 1495, 1536, 1535, 3175, 3176, 3217, 3216
1459, 1495, 1496, 1537, 1536, 3176, 3177, 3218, 3217
1460, 1496, 1497, 1538, 1537, 3177, 3178, 3219, 3218
1461, 1497, 1498, 1539, 1538, 3178, 3179, 3220, 3219
1462, 1498, 1499, 1540, 1539, 3179, 3180, 3221, 3220
1463, 1499, 1500, 1541, 1540, 3180, 3181, 3222, 3221
1464, 1500, 1501, 1542, 1541, 3181, 3182, 3223, 3222
1465, 1501, 1502, 1543, 1542, 3182, 3183, 3224, 3223
1466, 1502, 1503, 1544, 1543, 3183, 3184, 3225, 3224
1467, 1503, 1504, 1545, 1544, 3184, 3185, 3226, 3225
1468, 1504, 1505, 1546, 1545, 3185, 3186, 3227, 3226
1469, 1505, 1506, 1547, 1546, 3186, 3187, 3228, 3227
1470, 1506, 1507, 1548, 1547, 3187, 3188, 3229, 3228
1471, 1507, 1508, 1549, 1548, 3188, 3189, 3230, 3229
1472, 1508, 1509, 1550, 1549, 3189, 3190, 3231, 3230
1473, 1509, 1510, 1551, 1550, 3190, 3191, 3232, 3231
1474, 1510, 1511, 1552, 1551, 3191, 3192, 3233, 3232
1475, 1511, 1512, 1553, 1552, 3192, 3193, 3234, 3233
1476, 1512, 1513, 1554, 1553, 3193, 3194, 3235, 3234
1477, 1513, 1514, 1555, 1554, 3194, 3195, 3236, 3235
1478, 1514, 1515, 1556, 1555, 3195, 3196, 3237, 3236
1479, 1515, 1516, 1557, 1556, 3196, 3197, 3238, 3237
1480, 1516, 1517, 1558, 1557, 3197, 3198, 3239, 3238
1481, 1518, 1519, 1560, 1559, 3199, 3200, 3241, 3240
1482, 1519, 1520, 1561, 1560, 3200, 3201, 3242, 3241
1483, 1520, 1521, 1562, 1561, 3201, 3202, 3243, 3242
1484, 1521, 1522, 1563, 1562, 3202, 3203, 3244, 3243
1485, 1522, 1523, 1564, 1563, 3203, 3204, 3245, 3244
1486, 1523, 1524, 1565, 1564, 3204, 3205, 3246, 3245
1487, 1524, 1525, 1566, 1565, 3205, 3206, 3247, 3246
1488, 1525, 1526, 1567, 1566, 3206, 3207, 3248, 3247
1489, 1526, 1527, 1568, 1567, 3207, 3208, 3249, 3248
1490, 1527, 1528, 1569, 1568, 3208, 3209, 3250, 3249
1491, 1528, 1529, 1570, 1569, 3209, 3210, 3251, 3250
1492, 1529, 1530, 1571, 1570, 3210, 3211, 3252, 3251
1493, 1530, 1531, 1572, 1571, 3211, 3212, 3253, 3252
1494, 1531, 1532, 1573, 1572, 3212, 3213, 3254, 3253
1495, 1532, 1533, 1574, 1573, 3213, 3214, 3255, 3254
1496, 1533, 1534, 1575, 1574, 3214, 3215, 3256, 3255
1497, 1534, 1535, 1576, 1575, 3215, 3216, 3257, 3256
1498, 1535, 1536, 1577, 1576, 3216, 3217, 3258, 3257
1499, 1536, 1537, 1578, 1577, 3217, 3218, 3259, 3258
1500, 1537, 1538, 1579, 1578, 3218, 3219, 3260, 3259
1501, 1538, 1539, 1580, 1579, 3219, 3220, 3261, 3260
1502, 1539, 1540, 1581, 1580, 3220, 3221, 3262, 3261
1503, 1540, 1541, 1582, 1581, 3221, 3222, 3263, 3262
1504, 1541, 1542, 1583, 1582, 3222, 3223, 3264, 3263
1505, 1542, 1543, 1584, 1583, 3223, 3224, 3265, 3264
1506, 1543, 1544, 1585, 1584, 3224, 3225, 3266, 3265
1507, 1544, 1545, 1586, 1585, 3225, 3226, 3267, 3266
1508, 1545, 1546, 1587, 1586, 3226, 3227, 3268, 3267
1509, 1546, 1547, 1588, 1587, 3227, 3228, 3269, 3268
1510, 1547, 1548, 1589, 1588, 3228, 3229, 3270, 3269
1511, 1548, 1549, 1590, 1589, 3229, 3230, 3271, 3270
1512, 1549, 1550, 1591, 1590, 3230, 3231, 3272, 3271
1513, 1550, 1551, 1592, 1591, 3231, 3232, 3273, 3272
1514, 1551, 1552, 1593, 1592, 3232, 3233, 3274, 3273
1515, 1552, 1553, 1594, 1593, 3233, 3234, 3275, 3274
1516, 1553, 1554, 1595, 1594, 3234, 3235, 3276, 3275
1517, 1554, 1555, 1596, 1595, 3235, 3236, 3277, 3276
1518, 1555, 1556, 1597, 1596, 3236, 3237, 3278, 3277
1519, 1556, 1557, 1598, 1597, 3237, 3238, 3279, 3278
1520, 1557, 1558, 1599, 1598, 3238, 3239, 3280, 3279
1521, 1559, 1560, 1601, 1600, 3240, 3241, 3282, 3281
1522, 1560, 1561, 1602, 1601, 3241, 3242, 3283, 3282
1523, 1561, 1562, 1603, 1602, 3242, 3243, 3284, 3283
1524, 1562, 1563, 1604, 1603, 3243, 3244, 3285, 3284
1525, 1563, 1564, 1605, 1604, 3244, 3245, 3286, 3285
1526, 1564, 1565, 1606, 1605, 3245, 3246, 3287, 3286
1527, 1565, 1566, 1607, 1606, 3246, 3247, 3288, 3287
1528, 1566, 1567, 1608, 1607, 3247, 3248, 3289, 3288
1529, 1567, 1568, 1609, 1608, 3248, 3249, 3290, 3289
1530, 1568, 1569, 1610, 1609, 3249, 3250, 3291, 3290
1531, 1569, 1570, 1611, 1610, 3250, 3251, 3292, 3291
1532, 1570, 1571, 1612, 1611, 3251, 3252, 3293, 3292
1533, 1571, 1572, 1613, 1612, 3252, 3253, 3294, 3293
1534, 1572, 1573, 1614, 1613, 3253, 3254, 3295, 3294
1535, 1573, 1574, 1615, 1614, 3254, 3255, 3296, 3295
1536, 1574, 1575, 1616, 1615, 3255, 3256, 3297, 3296
1537, 1575, 1576, 1617, 1616, 3256, 3257, 3298, 3297
1538, 1576, 1577, 1618, 1617, 3257, 3258, 3299, 3298
1539, 1577, 1578, 1619, 1618, 3258, 3259, 3300, 3299
1540, 1578, 1579, 1620, 1619, 3259, 3260, 3301, 3300
1541, 1579, 1580, 1621, 1620, 3260, 3261, 3302, 3301
1542, 1580, 1581, 1622, 1621, 3261, 3262, 3303, 3302
1543, 1581, 1582, 1623, 1622, 3262, 3263, 3304, 3303
1544, 1582, 1583, 1624, 1623, 3263, 3264, 3305, 3304
1545, 1583, 1584, 1625, 1624, 3264, 3265, 3306, 3305
1546, 1584, 1585, 1626, 1625, 3265, 3266, 3307, 3306
1547, 1585, 1586, 1627, 1626, 3266, 3267, 3308, 3307
1548, 1586, 1587, 1628, 1627, 3267, 3268, 3309, 3308
1549, 1587, 1588, 1629, 1628, 3268, 3269, 3310, 3309
1550, 1588, 1589, 1630, 1629, 3269, 3270, 3311, 3310
1551, 1589, 1590, 1631, 1630, 3270, 3271, 3312, 3311
1552, 1590, 1591, 1632, 1631, 3271, 3272, 3313, 3312
1553, 1591, 1592, 1633, 1632, 3272, 3273, 3314, 3313
1554, 1592, 1593, 1634, 1633, 3273, 3274, 3315, 3314
1555, 1593, 1594, 1635, 1634, 3274, 3275, 3316, 3315
1556, 1594, 1595, 1636, 1635, 3275, 3276, 3317, 3316
1557, 1595, 1596, 1637, 1636, 3276, 3277, 3318, 3317
1558, 1596, 1597, 1638, 1637, 3277, 3278, 3319, 3318
1559, 1597, 1598, 1639, 1638, 3278, 3279, 3320, 3319
1560, 1598, 1599, 1640, 1639, 3279, 3280, 3321, 3320
1561, 1600, 1601, 1642, 1641, 3281, 3282, 3323, 3322
1562, 1601, 1602, 1643, 1642, 3282, 3283, 3324, 3323
1563, 1602, 1603, 1644, 1643, 3283, 3284, 3325, 3324
1564, 1603, 1604, 1645, 1644, 3284, 3285, 3326, 3325
1565, 1604, 1605, 1646, 1645, 3285, 3286, 3327, 3326
1566, 1605, 1606, 1647, 1646, 3286, 3287, 3328, 3327
1567, 1606, 1607, 1648, 1647, 3287, 3288, 3329, 3328
1568, 1607, 1608, 1649, 1648, 3288, 3289, 3330, 3329
1569, 1608, 1609, 1650, 1649, 3289, 3290, 3331, 3330
1570, 1609, 1610, 1651, 1650, 3290, 3291, 3332, 3331
1571, 1610, 1611, 1652, 1651, 3291, 3292, 3333, 3332
1572, 1611, 1612, 1653, 1652, 3292, 3293, 3334, 3333
1573, 1612, 1613, 1654, 1653, 3293, 3294, 3335, 3334
1574, 1613, 1614, 1655, 1654, 3294, 3295, 3336, 3335
1575, 1614, 1615, 1656, 1655, 3295, 3296, 3337, 3336
1576, 1615, 1616, 1657, 1656, 3296, 3297, 3338, 3337
1577, 1616, 1617, 1658, 1657, 3297, 3298, 3339, 3338
1578, 1617, 1618, 1659, 1658, 3298, 3299, 3340, 3339
1579, 1618, 1619, 1660, 1659, 3299, 3300, 3341, 3340
1580, 1619, 1620, 1661, 1660, 3300, 3301, 3342, 3341
1581, 1620, 1621, 1662, 1661, 3301, 3302, 3343, 3342
1582, 1621, 1622, 1663, 1662, 3302, 3303, 3344, 3343
1583, 1622, 1623, 1664, 1663, 3303, 3304, 3345, 3344
1584, 1623, 1624, 1665, 1664, 3304, 3305, 3346, 3345
1585, 1624, 1625, 1666, 1665, 3305, 3306, 3347, 3346
1586, 1625, 1626, 1667, 1666, 3306, 3307, 3348, 3347
1587, 1626, 1627, 1668, 1667, 3307, 3308, 3349, 3348
1588, 1627, 1628, 1669, 1668, 3308, 3309, 3350, 3349
1589, 1628, 1629, 1670, 1669, 3309, 3310, 3351, 3350
1590, 1629, 1630, 1671, 1670, 3310, 3311, 3352, 3351
1591, 1630, 1631, 1672, 1671, 3311, 3312, 3353, 3352
1592, 1631, 1632, 1673, 1672, 3312, 3313, 3354, 3353
1593, 1632, 1633, 1674, 1673, 3313, 3314, 3355, 3354
1594, 1633, 1634, 1675, 1674, 3314, 3315, 3356, 3355
1595, 1634, 1635, 1676, 1675, 3315, 3316, 3357, 3356
1596, 1635, 1636, 1677, 1676, 3316, 3317, 3358, 3357
1597, 1636, 1637, 1678, 1677, 3317, 3318, 3359, 3358
1598, 1637, 1638, 1679, 1678, 3318, 3319, 3360, 3359
1599, 1638, 1639, 1680, 1679, 3319, 3320, 3361, 3360
1600, 1639, 1640, 1681, 1680, 3320, 3321, 3362, 3361
1601, 1682, 1683, 1724, 1723, 3363, 3364, 3405, 3404
1602, 1683, 1684, 1725, 1724, 3364, 3365, 3406, 3405
1603, 1684, 1685, 1726, 1725, 3365, 3366, 3407, 3406
1604, 1685, 1686, 1727, 1726, 3366, 3367, 3408, 3407
1605, 1686, 1687, 1728, 1727, 3367, 3368, 3409, 3408
1606, 1687, 1688, 1729, 1728, 3368, 3369, 3410, 3409
1607, 1688, 1689, 1730, 1729, 3369, 3370, 3411, 3410
1608, 1689, 1690, 1731, 1730, 3370, 3371, 3412, 3411
1609, 1690, 1691, 1732, 1731, 3371, 3372, 3413, 3412
1610, 1691, 1692, 1733, 1732, 3372, 3373, 3414, 3413
1611, 1692, 1693, 1734, 1733, 3373, 3374, 3415, 3414
1612, 1693, 1694, 1735, 1734, 3374, 3375, 3416, 3415
1613, 1694, 1695, 1736, 1735, 3375, 3376, 3417, 3416
1614, 1695, 1696, 1737, 1736, 3376, 3377, 3418, 3417
1615, 1696, 1697, 1738, 1737, 3377, 3378, 3419, 3418
1616, 1697, 1698, 1739, 1738, 3378, 3379, 3420, 3419
1617, 1698, 1699, 1740, 1739, 3379, 3380, 3421, 3420
1618, 1699, 1700, 1741, 1740, 3380, 3381, 3422, 3421
1619, 1700, 1701, 1742, 1741, 3381, 3382, 3423, 3422
1620, 1701, 1702, 1743, 1742, 3382, 3383, 3424, 3423
1621, 1702, 1703, 1744, 1743, 3383, 3384, 3425, 3424
1622, 1703, 1704, 1745, 1744, 3384, 3385, 3426, 3425
1623, 1704, 1705, 1746, 1745, 3385, 3386, 3427, 3426
1624, 1705, 1706, 1747, 1746, 3386, 3387, 3428, 3427
1625, 1706, 1707, 1748, 1747, 3387, 3388, 3429, 3428
1626, 1707, 1708, 1749, 1748, 3388, 3389, 3430, 3429
1627, 1708, 1709, 1750, 1749, 3389, 3390, 3431, 3430
1628, 1709, 1710, 1751, 1750, 3390, 3391, 3432, 3431
1629, 1710, 1711, 1752, 1751, 3391, 3392, 3433, 3432
1630, 1711, 1712, 1753, 1752, 3392, 3393, 3434, 3433
1631, 1712, 1713, 1754, 1753, 3393, 3394, 3435, 3434
1632, 1713, 1714, 1755, 1754, 3394, 3395, 3436, 3435
1633, 1714, 1715, 1756, 1755, 3395, 3396, 3437, 3436
1634, 1715, 1716, 1757, 1756, 3396, 3397, 3438, 3437
1635, 1716, 1717, 1758, 1757, 3397, 3398, 3439, 3438
1636, 1717, 1718, 1759, 1758, 3398, 3399, 3440, 3439
1637, 1718, 1719, 1760, 1759, 3399, 3400, 3441, 3440
1638, 1719, 1720, 1761, 1760, 3400, 3401, 3442, 3441
1639, 1720, 1721, 1762, 1761, 3401, 3402, 3443, 3442
1640, 1721, 1722, 1763, 1762, 3402, 3403, 3444, 3443
1641, 1723, 1724, 1765, 1764, 3404, 3405, 3446, 3445
1642, 1724, 1725, 1766, 1765, 3405, 3406, 3447, 3446
1643, 1725, 1726, 1767, 1766, 3406, 3407, 3448, 3447
1644, 1726, 1727, 1768, 1767, 3407, 3408, 3449, 3448
1645, 1727, 1728, 1769, 1768, 3408, 3409, 3450, 3449
1646, 1728, 1729, 1770, 1769, 3409, 3410, 3451, 3450
1647, 1729, 1730, 1771, 1770, 3410, 3411, 3452, 3451
1648, 1730, 1731, 1772, 1771, 3411, 3412, 3453, 3452
1649, 1731, 1732, 1773, 1772, 3412, 3413, 3454, 3453
1650, 1732, 1733, 1774, 1773, 3413, 3414, 3455, 3454
1651, 1733, 1734, 1775, 1774, 3414, 3415, 3456, 3455
1652, 1734, 1735, 1776, 1775, 3415, 3416, 3457, 3456
1653, 1735, 1736, 1777, 1776, 3416, 3417, 3458, 3457
1654, 1736, 1737, 1778, 1777, 3417, 3418, 3459, 3458
1655, 1737, 1738, 1779, 1778, 3418, 3419, 3460, 3459
1656, 1738, 1739, 1780, 1779, 3419, 3420, 3461, 3460
1657, 1739, 1740, 1781, 1780, 3420, 3421, 3462, 3461
1658, 1740, 1741, 1782, 1781, 3421, 3422, 3463, 3462
1659, 1741, 1742, 1783, 1782, 3422, 3423, 3464, 3463
1660, 1742, 1743, 1784, 1783, 3423, 3424, 3465, 3464
1661, 1743, 1744, 1785, 1784, 3424, 3425, 3466, 3465
1662, 1744, 1745, 1786, 1785, 3425, 3426, 3467, 3466
1663, 1745, 1746, 1787, 1786, 3426, 3427, 3468, 3467
1664, 1746, 1747, 1788, 1787, 3427, 3428, 3469, 3468
1665, 1747, 1748, 1789, 1788, 3428, 3429, 3470, 3469
1666, 1748, 1749, 1790, 1789, 3429, 3430, 3471, 3470
1667, 1749, 1750, 1791, 1790, 3430, 3431, 3472, 3471
1668, 1750, 1751, 1792, 1791, 3431, 3432, 3473, 3472
1669, 1751, 1752, 1793, 1792, 3432, 3433, 3474, 3473
1670, 1752, 1753, 1794, 1793, 3433, 3434, 3475, 3474
1671, 1753, 1754, 1795, 1794, 3434, 3435, 3476, 3475
1672, 1754, 1755, 1796, 1795, 3435, 3436, 3477, 3476
1673, 1755, 1756, 1797, 1796, 3436, 3437, 3478, 3477
1674, 1756, 1757, 1798, 1797, 3437, 3438, 3479, 3478
1675, 1757, 1758, 1799, 1798, 3438, 3439, 3480, 3479
1676, 1758, 1759, 1800, 1799, 3439, 3440, 3481, 3480
1677, 1759, 1760, 1801, 1800, 3440, 3441, 3482, 3481
1678, 1760, 1761, 1802, 1801, 3441, 3442, 3483, 3482
1679, 1761, 1762, 1803, 1802, 3442, 3443, 3484, 3483
1680, 1762, 1763, 1804, 1803, 3443, 3444, 3485, 3484
1681, 1764, 1765, 1806, 1805, 3445, 3446, 3487, 3486
1682, 1765, 1766, 1807, 1806, 3446, 3447, 3488, 3487
1683, 1766, 1767, 1808, 1807, 3447, 3448, 3489, 3488
1684, 1767, 1768, 1809, 1808, 3448, 3449, 3490, 3489
1685, 1768, 1769, 1810, 1809, 3449, 3450, 3491, 3490
1686, 1769, 1770, 1811, 1810, 3450, 3451, 3492, 3491
1687, 1770, 1771, 1812, 1811, 3451, 3452, 3493, 3492
1688, 1771, 1772, 1813, 1812, 3452, 3453, 3494, 3493
1689, 1772, 1773, 1814, 1813, 3453, 3454, 3495, 3494
1690, 1773, 1774, 1815, 1814, 3454, 3455, 3496, 3495
1691, 1774, 1775, 1816, 1815, 3455, 3456, 3497, 3496
1692, 1775, 1776, 1817, 1816, 3456, 3457, 3498, 3497
1693, 1776, 1777, 1818, 1817, 3457, 3458, 3499, 3498
1694, 1777, 1778, 1819, 1818, 3458, 3459, 3500, 3499
1695, 1778, 1779, 1820, 1819, 3459, 3460, 3501, 3500
1696, 1779, 1780, 1821, 1820, 3460, 3461, 3502, 3501
1697, 1780, 1781, 1822, 1821, 3461, 3462, 3503, 3502
1698, 1781, 1782, 1823, 1822, 3462, 3463, 3504, 3503
1699, 1782, 1783, 1824, 1823, 3463, 3464, 3505, 3504
1700, 1783, 1784, 1825, 1824, 3464, 3465, 3506, 3505
1701, 1784, 1785, 1826, 1825, 3465, 3466, 3507, 3506
1702, 1785, 1786, 1827, 1826, 3466, 3467, 3508, 3507
1703, 1786, 1787, 1828, 1827, 3467, 3468, 3509, 3508
1704, 1787, 1788, 1829, 1828, 3468, 3469, 3510, 3509
1705, 1788, 1789, 1830, 1829, 3469, 3470, 3511, 3510
1706, 1789, 1790, 1831, 1830, 3470, 3471, 3512, 3511
1707, 1790, 1791, 1832, 1831, 3471, 3472, 3513, 3512
1708, 1791, 1792, 1833, 1832, 3472, 3473, 3514, 3513
1709, 1792, 1793, 1834, 1833, 3473, 3474, 3515, 3514
1710, 1793, 1794, 1835, 1834, 3474, 3475, 3516, 3515
1711, 1794, 1795, 1836, 1835, 3475, 3476, 3517, 3516
1712, 1795, 1796, 1837, 1836, 3476, 3477, 3518, 3517
1713, 1796, 1797, 1838, 1837, 3477, 3478, 3519, 3518
1714, 1797, 1798, 1839, 1838, 3478, 3479, 3520, 3519
1715, 1798, 1799, 1840, 1839, 3479, 3480, 3521, 3520
1716, 1799, 1800, 1841, 1840, 3480, 3481, 3522, 3521
1717, 1800, 1801, 1842, 1841, 3481, 3482, 3523, 3522
1718, 1801, 1802, 1843, 1842, 3482, 3483, 3524, 3523
1719, 1802, 1803, 1844, 1843, 3483, 3484, 3525, 3524
1720, 1803, 1804, 1845, 1844, 3484, 3485, 3526, 3525
1721, 1805, 1806, 1847, 1846, 3486, 3487, 3528, 3527
1722, 1806, 1807, 1848, 1847, 3487, 3488, 3529, 3528
1723, 1807, 1808, 1849, 1848, 3488, 3489, 3530, 3529
1724, 1808, 1809, 1850, 1849, 3489, 3490, 3531, 3530
1725, 1809, 1810, 1851, 1850, 3490, 3491, 3532, 3531
1726, 1810, 1811, 1852, 1851, 3491, 3492, 3533, 3532
1727, 1811, 1812, 1853, 1852, 3492, 3493, 3534, 3533
1728, 1812, 1813, 1854, 1853, 3493, 3494, 3535, 3534
1729, 1813, 1814, 1855, 1854, 3494, 3495, 3536, 3535
1730, 1814, 1815, 1856, 1855, 3495, 3496, 3537, 3536
1731, 1815, 1816, 1857, 1856, 3496, 3497, 3538, 3537
1732, 1816, 1817, 1858, 1857, 3497, 3498, 3539, 3538
1733, 1817, 1818, 1859, 1858, 3498, 3499, 3540, 3539
1734, 1818, 1819, 1860, 1859, 3499, 3500, 3541, 3540
1735, 1819, 1820, 1861, 1860, 3500, 3501, 3542, 3541
1736, 1820, 1821, 1862, 1861, 3501, 3502, 3543, 3542
1737, 1821, 1822, 1863, 1862, 3502, 3503, 3544, 3543
1738, 1822, 1823, 1864, 1863, 3503, 3504, 3545, 3544
1739, 1823, 1824, 1865, 1864, 3504, 3505, 3546, 3545
1740, 1824, 1825, 1866, 1865, 3505, 3506, 3547, 3546
1741, 1825, 1826, 1867, 1866, 3506, 3507, 3548, 3547
1742, 1826, 1827, 1868, 1867, 3507, 3508, 3549, 3548
1743, 1827, 1828, 1869, 1868, 3508, 3509, 3550, 3549
1744, 1828, 1829, 1870, 1869, 3509, 3510, 3551, 3550
1745, 1829, 1830, 1871, 1870, 3510, 3511, 3552, 3551
1746, 1830, 1831, 1872, 1871, 3511, 3512, 3553, 3552
1747, 1831, 1832, 1873, 1872, 3512, 3513, 3554, 3553
1748, 1832, 1833, 1874, 1873, 3513, 3514, 3555, 3554
1749, 1833, 1834, 1875, 1874, 3514, 3515, 3556, 3555
1750, 1834, 1835, 1876, 1875, 3515, 3516, 3557, 3556
1751, 1835, 1836, 1877, 1876, 3516, 3517, 3558, 3557
1752, 1836, 1837, 1878, 1877, 3517, 3518, 3559, 3558
1753, 1837, 1838, 1879, 1878, 3518, 3519, 3560, 3559
1754, 1838, 1839, 1880, 1879, 3519, 3520, 3561, 3560
1755, 1839, 1840, 1881, 1880, 3520, 3521, 3562, 3561
1756, 1840, 1841, 1882, 1881, 3521, 3522, 3563, 3562
1757, 1841, 1842, 1883, 1882, 3522, 3523, 3564, 3563
1758, 1842, 1843, 1884, 1883, 3523, 3524, 3565, 3564
1759, 1843, 1844, 1885, 1884, 3524, 3525, 3566, 3565
1760, 1844, 1845, 1886, 1885, 3525, 3526, 3567, 3566
1761, 1846, 1847, 1888, 1887, 3527, 3528, 3569, 3568
1762, 1847, 1848, 1889, 1888, 3528, 3529, 3570, 3569
1763, 1848, 1849, 1890, 1889, 3529, 3530, 3571, 3570
1764, 1849, 1850, 1891, 1890, 3530, 3531, 3572, 3571
1765, 1850, 1851, 1892, 1891, 3531, 3532, 3573, 3572
1766, 1851, 1852, 1893, 1892, 3532, 3533, 3574, 3573
1767, 1852, 1853, 1894, 1893, 3533, 3534, 3575, 3574
1768, 1853, 1854, 1895, 1894, 3534, 3535, 3576, 3575
1769, 1854, 1855, 1896, 1895, 3535, 3536, 3577, 3576
1770, 1855, 1856, 1897, 1896, 3536, 3537, 3578, 3577
1771, 1856, 1857, 1898, 1897, 3537, 3538, 3579, 3578
1772, 1857, 1858, 1899, 1898, 3538, 3539, 3580, 3579
1773, 1858, 1859, 1900, 1899, 3539, 3540, 3581, 3580
1774, 1859, 1860, 1901, 1900, 3540, 3541, 3582, 3581
1775, 1860, 1861, 1902, 1901, 3541, 3542, 3583, 3582
1776, 1861, 1862, 1903, 1902, 3542, 3543, 3584, 3583
1777, 1862, 1863, 1904, 1903, 3543, 3544, 3585, 3584
1778, 1863, 1864, 1905, 1904, 3544, 3545, 3586, 3585
1779, 1864, 1865, 1906, 1905, 3545, 3546, 3587, 3586
1780, 1865, 1866, 1907, 1906, 3546, 3547, 3588, 3587
1781, 1866, 1867, 1908, 1907, 3547, 3548, 3589, 3588
1782, 1867, 1868, 1909, 1908, 3548, 3549, 3590, 3589
1783, 1868, 1869, 1910, 1909, 3549, 3550, 3591, 3590
1784, 1869, 1870, 1911, 1910, 3550, 3551, 3592, 3591
1785, 1870, 1871, 1912, 1911, 3551, 3552, 3593, 3592
1786, 1871, 1872, 1913, 1912, 3552, 3553, 3594, 3593
1787, 1872, 1873, 1914, 1913, 3553, 3554, 3595, 3594
1788, 1873, 1874, 1915, 1914, 3554, 3555, 3596, 3595
1789, 1874, 1875, 1916, 1915, 3555, 3556, 3597, 3596
1790, 1875, 1876, 1917, 1916, 3556, 3557, 3598, 3597
1791, 1876, 1877, 1918, 1917, 3557, 3558, 3599, 3598
1792, 1877, 1878, 1919, 1918, 3558, 3559, 3600, 3599
1793, 1878, 1879, 1920, 1919, 3559, 3560, 3601, 3600
1794, 1879, 1880, 1921, 1920, 3560, 3561, 3602, 3601
1795, 1880, 1881, 1922, 1921, 3561, 3562, 3603, 3602
1796, 1881, 1882, 1923, 1922, 3562, 3563, 3604, 3603
1797, 1882, 1883, 1924, 1923, 3563, 3564, 3605, 3604
1798, 1883, 1884, 1925, 1924, 3564, 3565, 3606, 3605
1799, 1884, 1885, 1926, 1925, 3565, 3566, 3607, 3606
1800, 1885, 1886, 1927, 1926, 3566, 3567, 3608, 3607
1801, 1887, 1888, 1929, 1928, 3568, 3569, 3610, 3609
1802, 1888, 1889, 1930, 1929, 3569, 3570, 3611, 3610
1803, 1889, 1890, 1931, 1930, 3570, 3571, 3612, 3611
1804, 1890, 1891, 1932, 1931, 3571, 3572, 3613, 3612
1805, 1891, 1892, 1933, 1932, 3572, 3573, 3614, 3613
1806, 1892, 1893, 1934, 1933, 3573, 3574, 3615, 3614
1807, 1893, 1894, 1935, 1934, 3574, 3575, 3616, 3615
1808, 1894, 1895, 1936, 1935, 3575, 3576, 3617, 3616
1809, 1895, 1896, 1937, 1936, 3576, 3577, 3618, 3617
1810, 1896, 1897, 1938, 1937, 3577, 3578, 3619, 3618
1811, 1897, 1898, 1939, 1938, 3578, 3579, 3620, 3619
1812, 1898, 1899, 1940, 1939, 3579, 3580, 3621, 3620
1813, 1899, 1900, 1941, 1940, 3580, 3581, 3622, 3621
1814, 1900, 1901, 1942, 1941, 3581, 3582, 3623, 3622
1815, 1901, 1902, 1943, 1942, 3582, 3583, 3624, 3623
1816, 1902, 1903, 1944, 1943, 3583, 3584, 3625, 3624
1817, 1903, 1904, 1945, 1944, 3584, 3585, 3626, 3625
1818, 1904, 1905, 1946, 1945, 3585, 3586, 3627, 3626
1819, 1905, 1906, 1947, 1946, 3586, 3587, 3628, 3627
1820, 1906, 1907, 1948, 1947, 3587, 3588, 3629, 3628
1821, 1907, 1908, 1949, 1948, 3588, 3589, 3630, 3629
1822, 1908, 1909, 1950, 1949, 3589, 3590, 3631, 3630
1823, 1909, 1910, 1951, 1950, 3590, 3591, 3632, 3631
1824, 1910, 1911, 1952, 1951, 3591, 3592, 3633, 3632
1825, 1911, 1912, 1953, 1952, 3592, 3593, 3634, 3633
1826, 1912, 1913, 1954, 1953, 3593, 3594, 3635, 3634
1827, 1913, 1914, 1955, 1954, 3594, 3595, 3636, 3635
1828, 1914, 1915, 1956, 1955, 3595, 3596, 3637, 3636
1829, 1915, 1916, 1957, 1956, 3596, 3597, 3638, 3637
1830, 1916, 1917, 1958, 1957, 3597, 3598, 3639, 3638
1831, 1917, 1918, 1959, 1958, 3598, 3599, 3640, 3639
1832, 1918, 1919, 1960, 1959, 3599, 3600, 3641, 3640
1833, 1919, 1920, 1961, 1960, 3600, 3601, 3642, 3641
1834, 1920, 1921, 1962, 1961, 3601, 3602, 3643, 3642
1835, 1921, 1922, 1963, 1962, 3602, 3603, 3644, 3643
1836, 1922, 1923, 1964, 1963, 3603, 3604, 3645, 3644
1837, 1923, 1924, 1965, 1964, 3604, 3605, 3646, 3645
1838, 1924, 1925, 1966, 1965, 3605, 3606, 3647, 3646
1839, 1925, 1926, 1967, 1966, 3606, 3607, 3648, 3647
1840, 1926, 1927, 1968, 1967, 3607, 3608, 3649, 3648
1841, 1928, 1929, 1970, 1969, 3609, 3610, 3651, 3650
1842, 1929, 1930, 1971, 1970, 3610, 3611, 3652, 3651
1843, 1930, 1931, 1972, 1971, 3611, 3612, 3653, 3652
1844, 1931, 1932, 1973, 1972, 3612, 3613, 3654, 3653
1845, 1932, 1933, 1974, 1973, 3613, 3614, 3655, 3654
1846, 1933, 1934, 1975, 1974, 3614, 3615, 3656, 3655
1847, 1934, 1935, 1976, 1975, 3615, 3616, 3657, 3656
1848, 1935, 1936, 1977, 1976, 3616, 3617, 3658, 3657
1849, 1936, 1937, 1978, 1977, 3617, 3618, 3659, 3658
1850, 1937, 1938, 1979, 1978, 3618, 3619, 3660, 3659
1851, 1938, 1939, 1980, 1979, 3619, 3620, 3661, 3660
1852, 1939, 1940, 1981, 1980, 3620, 3621, 3662, 3661
1853, 1940, 1941, 1982, 1981, 3621, 3622, 3663, 3662
1854, 1941, 1942, 1983, 1982, 3622, 3623, 3664, 3663
1855, 1942, 1943, 1984, 1983, 3623, 3624, 3665, 3664
1856, 1943, 1944, 1985, 1984, 3624, 3625, 3666, 3665
1857, 1944, 1945, 1986, 1985, 3625, 3626, 3667, 3666
1858, 1945, 1946, 1987, 1986, 3626, 3627, 3668, 3667
1859, 1946, 1947, 1988, 1987, 3627, 3628, 3669, 3668
1860, 1947, 1948, 1989, 1988, 3628, 3629, 3670, 3669
1861, 1948, 1949, 1990, 1989, 3629, 3630, 3671, 3670
1862, 1949, 1950, 1991, 1990, 3630, 3631, 3672, 3671
1863, 1950, 1951, 1992, 1991, 3631, 3632, 3673, 3672
1864, 1951, 1952, 1993, 1992, 3632, 3633, 3674, 3673
1865, 1952, 1953, 1994, 1993, 3633, 3634, 3675, 3674
1866, 1953, 1954, 1995, 1994, 3634, 3635, 3676, 3675
1867, 1954, 1955, 1996, 1995, 3635, 3636, 3677, 3676
1868, 1955, 1956, 1997, 1996, 3636, 3637, 3678, 3677
1869, 1956, 1957, 1998, 1997, 3637, 3638, 3679, 3678
1870, 1957, 1958, 1999, 1998, 3638, 3639, 3680, 3679
1871, 1958, 1959, 2000, 1999, 3639, 3640, 3681, 3680
1872, 1959, 1960, 2001, 2000, 3640, 3641, 3682, 3681
1873, 1960, 1961, 2002, 2001, 3641, 3642, 3683, 3682
1874, 1961, 1962, 2003, 2002, 3642, 3643, 3684, 3683
1875, 1962, 1963, 2004, 2003, 3643, 3644, 3685, 3684
1876, 1963, 1964, 2005, 2004, 3644, 3645, 3686, 3685
1877, 1964, 1965, 2006, 2005, 3645, 3646, 3687, 3686
1878, 1965, 1966, 2007, 2006, 3646, 3647, 3688, 3687
1879, 1966, 1967, 2008, 2007, 3647, 3648, 3689, 3688
1880, 1967, 1968, 2009, 2008, 3648, 3649, 3690, 3689
1881, 1969, 1970, 2011, 2010, 3650, 3651, 3692, 3691
1882, 1970, 1971, 2012, 2011, 3651, 3652, 3693, 3692
1883, 1971, 1972, 2013, 2012, 3652, 3653, 3694, 3693
1884, 1972, 1973, 2014, 2013, 3653, 3654, 3695, 3694
1885, 1973, 1974, 2015, 2014, 3654, 3655, 3696, 3695
1886, 1974, 1975, 2016, 2015, 3655, 3656, 3697, 3696
1887, 1975, 1976, 2017, 2016, 3656, 3657, 3698, 3697
1888, 1976, 1977, 2018, 2017, 3657, 3658, 3699, 3698
1889, 1977, 1978, 2019, 2018, 3658, 3659, 3700, 3699
1890, 1978, 1979, 2020, 2019, 3659, 3660, 3701, 3700
1891, 1979, 1980, 2021, 2020, 3660, 3661, 3702, 3701
1892, 1980, 1981, 2022, 2021, 3661, 3662, 3703, 3702
1893, 1981, 1982, 2023, 2022, 3662, 3663, 3704, 3703
1894, 1982, 1983, 2024, 2023, 3663, 3664, 3705, 3704
1895, 1983, 1984, 2025, 2024, 3664, 3665, 3706, 3705
1896, 1984, 1985, 2026, 2025, 3665, 3666, 3707, 3706
1897, 1985, 1986, 2027, 2026, 3666, 3667, 3708, 3707
1898, 1986, 1987, 2028, 2027, 3667, 3668, 3709, 3708
1899, 1987, 1988, 2029, 2028, 3668, 3669, 3710, 3709
1900, 1988, 1989, 2030, 2029, 3669, 3670, 3711, 3710
1901, 1989, 1990, 2031, 2030, 3670, 3671, 3712, 3711
1902, 1990, 1991, 2032, 2031, 3671, 3672, 3713, 3712
1903, 1991, 1992, 2033, 2032, 3672, 3673, 3714, 3713
1904, 1992, 1993, 2034, 2033, 3673, 3674, 3715, 3714
1905, 1993, 1994, 2035, 2034, 3674, 3675, 3716, 3715
1906, 1994, 1995, 2036, 2035, 3675, 3676, 3717, 3716
1907, 1995, 1996, 2037, 2036, 3676, 3677, 3718, 3717
1908, 1996, 1997, 2038, 2037, 3677, 3678, 3719, 3718
1909, 1997, 1998, 2039, 2038, 3678, 3679, 3720, 3719
1910, 1998, 1999, 2040, 2039, 3679, 3680, 3721, 3720
1911, 1999, 2000, 2041, 2040, 3680, 3681, 3722, 3721
1912, 2000, 2001, 2042, 2041, 3681, 3682, 3723, 3722
1913, 2001, 2002, 2043, 2042, 3682, 3683, 3724, 3723
1914, 2002, 2003, 2044, 2043, 3683, 3684, 3725, 3724
1915, 2003, 2004, 2045, 2044, 3684, 3685, 3726, 3725
1916, 2004, 2005, 2046, 2045, 3685, 3686, 3727, 3726
1917, 2005, 2006, 2047, 2046, 3686, 3687, 3728, 3727
1918, 2006, 2007, 2048, 2047, 3687, 3688, 3729, 3728
1919, 2007, 2008, 2049, 2048, 3688, 3689, 3730, 3729
1920, 2008, 2009, 2050, 2049, 3689, 3690, 3731, 3730
1921, 2010, 2011, 2052, 2051, 3691, 3692, 3733, 3732
1922, 2011, 2012, 2053, 2052, 3692, 3693, 3734, 3733
1923, 2012, 2013, 2054, 2053, 3693, 3694, 3735, 3734
1924, 2013, 2014, 2055, 2054, 3694, 3695, 3736, 3735
1925, 2014, 2015, 2056, 2055, 3695, 3696, 3737, 3736
1926, 2015, 2016, 2057, 2056, 3696, 3697, 3738, 3737
1927, 2016, 2017, 2058, 2057, 3697, 3698, 3739, 3738
1928, 2017, 2018, 2059, 2058, 3698, 3699, 3740, 3739
1929, 2018, 2019, 2060, 2059, 3699, 3700, 3741, 3740
1930, 2019, 2020, 2061, 2060, 3700, 3701, 3742, 3741
1931, 2020, 2021, 2062, 2061, 3701, 3702, 3743, 3742
1932, 2021, 2022, 2063, 2062, 3702, 3703, 3744, 3743
1933, 2022, 2023, 2064, 2063, 3703, 3704, 3745, 3744
1934, 2023, 2024, 2065, 2064, 3704, 3705, 3746, 3745
1935, 2024, 2025, 2066, 2065, 3705, 3706, 3747, 3746
1936, 2025, 2026, 2067, 2066, 3706, 3707, 3748, 3747
1937, 2026, 2027, 2068, 2067, 3707, 3708, 3749, 3748
1938, 2027, 2028, 2069, 2068, 3708, 3709, 3750, 3749
1939, 2028, 2029, 2070, 2069, 3709, 3710, 3751, 3750
1940, 2029, 2030, 2071, 2070, 3710, 3711, 3752, 3751
1941, 2030, 2031, 2072, 2071, 3711, 3712, 3753, 3752
1942, 2031, 2032, 2073, 2072, 3712, 3713, 3754, 3753
1943, 2032, 2033, 2074, 2073, 3713, 3714, 3755, 3754
1944, 2033, 2034, 2075, 2074, 3714, 3715, 3756, 3755
1945, 2034, 2035, 2076, 2075, 3715, 3716, 3757, 3756
1946, 2035, 2036, 2077, 2076, 3716, 3717, 3758, 3757
1947, 2036, 2037, 2078, 2077, 3717, 3718, 3759, 3758
1948, 2037, 2038, 2079, 2078, 3718, 3719, 3760, 3759
1949, 2038, 2039, 2080, 2079, 3719, 3720, 3761, 3760
1950, 2039, 2040, 2081, 2080, 3720, 3721, 3762, 3761
1951, 2040, 2041, 2082, 2081, 3721, 3722, 3763, 3762
1952, 2041, 2042, 2083, 2082, 3722, 3723, 3764, 3763
1953, 2042, 2043, 2084, 2083, 3723, 3724, 3765, 3764
1954, 2043, 2044, 2085, 2084, 3724, 3725, 3766, 3765
1955, 2044, 2045, 2086, 2085, 3725, 3726, 3767, 3766
1956, 2045, 2046, 2087, 2086, 3726, 3727, 3768, 3767
1957, 2046, 2047, 2088, 2087, 3727, 3728, 3769, 3768
1958, 2047, 2048, 2089, 2088, 3728, 3729, 3770, 3769
1959, 2048, 2049, 2090, 2089, 3729, 3730, 3771, 3770
1960, 2049, 2050, 2091, 2090, 3730, 3731, 3772, 3771
1961, 2051, 2052, 2093, 2092, 3732, 3733, 3774, 3773
1962, 2052, 2053, 2094, 2093, 3733, 3734, 3775, 3774
1963, 2053, 2054, 2095, 2094, 3734, 3735, 3776, 3775
1964, 2054, 2055, 2096, 2095, 3735, 3736, 3777, 3776
1965, 2055, 2056, 2097, 2096, 3736, 3737, 3778, 3777
1966, 2056, 2057, 2098, 2097, 3737, 3738, 3779, 3778
1967, 2057, 2058, 2099, 2098, 3738, 3739, 3780, 3779
1968, 2058, 2059, 2100, 2099, 3739, 3740, 3781, 3780
1969, 2059, 2060, 2101, 2100, 3740, 3741, 3782, 3781
1970, 2060, 2061, 2102, 2101, 3741, 3742, 3783, 3782
1971, 2061, 2062, 2103, 2102, 3742, 3743, 3784, 3783
1972, 2062, 2063, 2104, 2103, 3743, 3744, 3785, 3784
1973, 2063, 2064, 2105, 2104, 3744, 3745, 3786, 3785
1974, 2064, 2065, 2106, 2105, 3745, 3746, 3787, 3786
1975, 2065, 2066, 2107, 2106, 3746, 3747, 3788, 3787
1976, 2066, 2067, 2108, 2107, 3747, 3748, 3789, 3788
1977, 2067, 2068, 2109, 2108, 3748, 3749, 3790, 3789
1978, 2068, 2069, 2110, 2109, 3749, 3750, 3791, 3790
1979, 2069, 2070, 2111, 2110, 3750, 3751, 3792, 3791
1980, 2070, 2071, 2112, 2111, 3751, 3752, 3793, 3792
1981, 2071, 2072, 2113, 2112, 3752, 3753, 3794, 3793
1982, 2072, 2073, 2114, 2113, 3753, 3754, 3795, 3794
1983, 2073, 2074, 2115, 2114, 3754, 3755, 3796, 3795
1984, 2074, 2075, 2116, 2115, 3755, 3756, 3797, 3796
1985, 2075, 2076, 2117, 2116, 3756, 3757, 3798, 3797
1986, 2076, 2077, 2118, 2117, 3757, 3758, 3799, 3798
1987, 2077, 2078, 2119, 2118, 3758, 3759, 3800, 3799
1988, 2078, 2079, 2120, 2119, 3759, 3760, 3801, 3800
1989, 2079, 2080, 2121, 2120, 3760, 3761, 3802, 3801
1990, 2080, 2081, 2122, 2121, 3761, 3762, 3803, 3802
1991, 2081, 2082, 2123, 2122, 3762, 3763, 3804, 3803
1992, 2082, 2083, 2124, 2123, 3763, 3764, 3805, 3804
1993, 2083, 2084, 2125, 2124, 3764, 3765, 3806, 3805
1994, 2084, 2085, 2126, 2125, 3765, 3766, 3807, 3806
1995, 2085, 2086, 2127, 2126, 3766, 3767, 3808, 3807
1996, 2086, 2087, 2128, 2127, 3767, 3768, 3809, 3808
1997, 2087, 2088, 2129, 2128, 3768, 3769, 3810, 3809
1998, 2088, 2089, 2130, 2129, 3769, 3770, 3811, 3810
1999, 2089, 2090, 2131, 2130, 3770, 3771, 3812, 3811
2000, 2090, 2091, 2132, 2131, 3771, 3772, 3813, 3812
2001, 2092, 2093, 2134, 2133, 3773, 3774, 3815, 3814
2002, 2093, 2094, 2135, 2134, 3774, 3775, 3816, 3815
2003, 2094, 2095, 2136, 2135, 3775, 3776, 3817, 3816
2004, 2095, 2096, 2137, 2136, 3776, 3777, 3818, 3817
2005, 2096, 2097, 2138, 2137, 3777, 3778, 3819, 3818
2006, 2097, 2098, 2139, 2138, 3778, 3779, 3820, 3819
2007, 2098, 2099, 2140, 2139, 3779, 3780, 3821, 3820
2008, 2099, 2100, 2141, 2140, 3780, 3781, 3822, 3821
2009, 2100, 2101, 2142, 2141, 3781, 3782, 3823, 3822
2010, 2101, 2102, 2143, 2142, 3782, 3783, 3824, 3823
2011, 2102, 2103, 2144, 2143, 3783, 3784, 3825, 3824
2012, 2103, 2104, 2145, 2144, 3784, 3785, 3826, 3825
2013, 2104, 2105, 2146, 2145, 3785, 3786, 3827, 3826
2014, 2105, 2106, 2147, 2146, 3786, 3787, 3828, 3827
2015, 2106, 2107, 2148, 2147, 3787, 3788, 3829, 3828
2016, 2107, 2108, 2149, 2148, 3788, 3789, 3830, 3829
2017, 2108, 2109, 2150, 2149, 3789, 3790, 3831, 3830
2018, 2109, 2110, 2151, 2150, 3790, 3791, 3832, 3831
2019, 2110, 2111, 2152, 2151, 3791, 3792, 3833, 3832
2020, 2111, 2112, 2153, 2152, 3792, 3793, 3834, 3833
2021, 2112, 2113, 2154, 2153, 3793, 3794, 3835, 3834
2022, 2113, 2114, 2155, 2154, 3794, 3795, 3836, 3835
2023, 2114, 2115, 2156, 2155, 3795, 3796, 3837, 3836
2024, 2115, 2116, 2157, 2156, 3796, 3797, 3838, 3837
2025, 2116, 2117, 2158, 2157, 3797, 3798, 3839, 3838
2026, 2117, 2118, 2159, 2158, 3798, 3799, 3840, 3839
2027, 2118, 2119, 2160, 2159, 3799, 3800, 3841, 3840
2028, 2119, 2120, 2161, 2160, 3800, 3801, 3842, 3841
2029, 2120, 2121, 2162, 2161, 3801, 3802, 3843, 3842
2030, 2121, 2122, 2163, 2162, 3802, 3803, 3844, 3843
2031, 2122, 2123, 2164, 2163, 3803, 3804, 3845, 3844
2032, 2123, 2124, 2165, 2164, 3804, 3805, 3846, 3845
2033, 2124, 2125, 2166, 2165, 3805, 3806, 3847, 3846
2034, 2125, 2126, 2167, 2166, 3806, 3807, 3848, 3847
2035, 2126, 2127, 2168, 2167, 3807, 3808, 3849, 3848
2036, 2127, 2128, 2169, 2168, 3808, 3809, 3850, 3849
2037, 2128, 2129, 2170, 2169, 3809, 3810, 3851, 3850
2038, 2129, 2130, 2171, 2170, 3810, 3811, 3852, 3851
2039, 2130, 2131, 2172, 2171, 3811, 3812, 3853, 3852
2040, 2131, 2132, 2173, 2172, 3812, 3813, 3854, 3853
2041, 2133, 2134, 2175, 2174, 3814, 3815, 3856, 3855
2042, 2134, 2135, 2176, 2175, 3815, 3816, 3857, 3856
2043, 2135, 2136, 2177, 2176, 3816, 3817, 3858, 3857
2044, 2136, 2137, 2178, 2177, 3817, 3818, 3859, 3858
2045, 2137, 2138, 2179, 2178, 3818, 3819, 3860, 3859
2046, 2138, 2139, 2180, 2179, 3819, 3820, 3861, 3860
2047, 2139, 2140, 2181, 2180, 3820, 3821, 3862, 3861
2048, 2140, 2141, 2182, 2181, 3821, 3822, 3863, 3862
2049, 2141, 2142, 2183, 2182, 3822, 3823, 3864, 3863
2050, 2142, 2143, 2184, 2183, 3823, 3824, 3865, 3864
2051, 2143, 2144, 2185, 2184, 3824, 3825, 3866, 3865
2052, 2144, 2145, 2186, 2185, 3825, 3826, 3867, 3866
2053, 2145, 2146, 2187, 2186, 3826, 3827, 3868, 3867
2054, 2146, 2147, 2188, 2187, 3827, 3828, 3869, 3868
2055, 2147, 2148, 2189, 2188, 3828, 3829, 3870, 3869
2056, 2148, 2149, 2190, 2189, 3829, 3830, 3871, 3870
2057, 2149, 2150, 2191, 2190, 3830, 3831, 3872, 3871
2058, 2150, 2151, 2192, 2191, 3831, 3832, 3873, 3872
2059, 2151, 2152, 2193, 2192, 3832, 3833, 3874, 3873
2060, 2152, 2153, 2194, 2193, 3833, 3834, 3875, 3874
2061, 2153, 2154, 2195, 2194, 3834, 3835, 3876, 3875
2062, 2154, 2155, 2196, 2195, 3835, 3836, 3877, 3876
2063, 2155, 2156, 2197, 2196, 3836, 3837, 3878, 3877
2064, 2156, 2157, 2198, 2197, 3837, 3838, 3879, 3878
2065, 2157, 2158, 2199, 2198, 3838, 3839, 3880, 3879
2066, 2158, 2159, 2200, 2199, 3839, 3840, 3881, 3880
2067, 2159, 2160, 2201, 2200, 3840, 3841, 3882, 3881
2068, 2160, 2161, 2202, 2201, 3841, 3842, 3883, 3882
2069, 2161, 2162, 2203, 2202, 3842, 3843, 3884, 3883
2070, 2162, 2163, 2204, 2203, 3843, 3844, 3885, 3884
2071, 2163, 2164, 2205, 2204, 3844, 3845, 3886, 3885
2072, 2164, 2165, 2206, 2205, 3845, 3846, 3887, 3886
2073, 2165, 2166, 2207, 2206, 3846, 3847, 3888, 3887
2074, 2166, 2167, 2208, 2207, 3847, 3848, 3889, 3888
2075, 2167, 2168, 2209, 2208, 3848, 3849, 3890, 3889
2076, 2168, 2169, 2210, 2209, 3849, 3850, 3891, 3890
2077, 2169, 2170, 2211, 2210, 3850, 3851, 3892, 3891
2078, 2170, 2171, 2212, 2211, 3851, 3852, 3893, 3892
2079, 2171, 2172, 2213, 2212, 3852, 3853, 3894, 3893
2080, 2172, 2173, 2214, 2213, 3853, 3854, 3895, 3894
2081, 2174, 2175, 2216, 2215, 3855, 3856, 3897, 3896
2082, 2175, 2176, 2217, 2216, 3856, 3857, 3898, 3897
2083, 2176, 2177, 2218, 2217, 3857, 3858, 3899, 3898
2084, 2177, 2178, 2219, 2218, 3858, 3859, 3900, 3899
2085, 2178, 2179, 2220, 2219, 3859, 3860, 3901, 3900
2086, 2179, 2180, 2221, 2220, 3860, 3861, 3902, 3901
2087, 2180, 2181, 2222, 2221, 3861, 3862, 3903, 3902
2088, 2181, 2182, 2223, 2222, 3862, 3863, 3904, 3903
2089, 2182, 2183, 2224, 2223, 3863, 3864, 3905, 3904
2090, 2183, 2184, 2225, 2224, 3864, 3865, 3906, 3905
2091, 2184, 2185, 2226, 2225, 3865, 3866, 3907, 3906
2092, 2185, 2186, 2227, 2226, 3866, 3867, 3908, 3907
2093, 2186, 2187, 2228, 2227, 3867, 3868, 3909, 3908
2094, 2187, 2188, 2229, 2228, 3868, 3869, 3910, 3909
2095, 2188, 2189, 2230, 2229, 3869, 3870, 3911, 3910
2096, 2189, 2190, 2231, 2230, 3870, 3871, 3912, 3911
2097, 2190, 2191, 2232, 2231, 3871, 3872, 3913, 3912
2098, 2191, 2192, 2233, 2232, 3872, 3873, 3914, 3913
2099, 2192, 2193, 2234, 2233, 3873, 3874, 3915, 3914
2100, 2193, 2194, 2235, 2234, 3874, 3875, 3916, 3915
2101, 2194, 2195, 2236, 2235, 3875, 3876, 3917, 3916
2102, 2195, 2196, 2237, 2236, 3876, 3877, 3918, 3917
2103, 2196, 2197, 2238, 2237, 3877, 3878, 3919, 3918
2104, 2197, 2198, 2239, 2238, 3878, 3879, 3920, 3919
2105, 2198, 2199, 2240, 2239, 3879, 3880, 3921, 3920
2106, 2199, 2200, 2241, 2240, 3880, 3881, 3922, 3921
2107, 2200, 2201, 2242, 2241, 3881, 3882, 3923, 3922
2108, 2201, 2202, 2243, 2242, 3882, 3883, 3924, 3923
2109, 2202, 2203, 2244, 2243, 3883, 3884, 3925, 3924
2110, 2203, 2204, 2245, 2244, 3884, 3885, 3926, 3925
2111, 2204, 2205, 2246, 2245, 3885, 3886, 3927, 3926
2112, 2205, 2206, 2247, 2246, 3886, 3887, 3928, 3927
2113, 2206, 2207, 2248, 2247, 3887, 3888, 3929, 3928
2114, 2207, 2208, 2249, 2248, 3888, 3889, 3930, 3929
2115, 2208, 2209, 2250, 2249, 3889, 3890, 3931, 3930
2116, 2209, 2210, 2251, 2250, 3890, 3891, 3932, 3931
2117, 2210, 2211, 2252, 2251, 3891, 3892, 3933, 3932
2118, 2211, 2212, 2253, 2252, 3892, 3893, 3934, 3933
2119, 2212, 2213, 2254, 2253, 3893, 3894, 3935, 3934
2120, 2213, 2214, 2255, 2254, 3894, 3895, 3936, 3935
2121, 2215, 2216, 2257, 2256, 3896, 3897, 3938, 3937
2122, 2216, 2217, 2258, 2257, 3897, 3898, 3939, 3938
2123, 2217, 2218, 2259, 2258, 3898, 3899, 3940, 3939
2124, 2218, 2219, 2260, 2259, 3899, 3900, 3941, 3940
2125, 2219, 2220, 2261, 2260, 3900, 3901, 3942, 3941
2126, 2220, 2221, 2262, 2261, 3901, 3902, 3943, 3942
2127, 2221, 2222, 2263, 2262, 3902, 3903, 3944, 3943
2128, 2222, 2223, 2264, 2263, 3903, 3904, 3945, 3944
2129, 2223, 2224, 2265, 2264, 3904, 3905, 3946, 3945
2130, 2224, 2225, 2266, 2265, 3905, 3906, 3947, 3946
2131, 2225, 2226, 2267, 2266, 3906, 3907, 3948, 3947
2132, 2226, 2227, 2268, 2267, 3907, 3908, 3949, 3948
2133, 2227, 2228, 2269, 2268, 3908, 3909, 3950, 3949
2134, 2228, 2229, 2270, 2269, 3909, 3910, 3951, 3950
2135, 2229, 2230, 2271, 2270, 3910, 3911, 3952, 3951
2136, 2230, 2231, 2272, 2271, 3911, 3912, 3953, 3952
2137, 2231, 2232, 2273, 2272, 3912, 3913, 3954, 3953
2138, 2232, 2233, 2274, 2273, 3913, 3914, 3955, 3954
2139, 2233, 2234, 2275, 2274, 3914, 3915, 3956, 3955
2140, 2234, 2235, 2276, 2275, 3915, 3916, 3957, 3956
2141, 2235, 2236, 2277, 2276, 3916, 3917, 3958, 3957
2142, 2236, 2237, 2278, 2277, 3917, 3918, 3959, 3958
2143, 2237, 2238, 2279, 2278, 3918, 3919, 3960, 3959
2144, 2238, 2239, 2280, 2279, 3919, 3920, 3961, 3960
2145, 2239, 2240, 2281, 2280, 3920, 3921, 3962, 3961
2146, 2240, 2241, 2282, 2281, 3921, 3922, 3963, 3962
2147, 2241, 2242, 2283, 2282, 3922, 3923, 3964, 3963
2148, 2242, 2243, 2284, 2283, 3923, 3924, 3965, 3964
2149, 2243, 2244, 2285, 2284, 3924, 3925, 3966, 3965
2150, 2244, 2245, 2286, 2285, 3925, 3926, 3967, 3966
2151, 2245, 2246, 2287, 2286, 3926, 3927, 3968, 3967
2152, 2246, 2247, 2288, 2287, 3927, 3928, 3969, 3968
2153, 2247, 2248, 2289, 2288, 3928, 3929, 3970, 3969
2154, 2248, 2249, 2290, 2289, 3929, 3930, 3971, 3970
2155, 2249, 2250, 2291, 2290, 3930, 3931, 3972, 3971
2156, 2250, 2251, 2292, 2291, 3931, 3932, 3973, 3972
2157, 2251, 2252, 2293, 2292, 3932, 3933, 3974, 3973
2158, 2252, 2253, 2294, 2293, 3933, 3934, 3975, 3974
2159, 2253, 2254, 2295, 2294, 3934, 3935, 3976, 3975
2160, 2254, 2255, 2296, 2295, 3935, 3936, 3977, 3976
2161, 2256, 2257, 2298, 2297, 3937, 3938, 3979, 3978
2162, 2257, 2258, 2299, 2298, 3938, 3939, 3980, 3979
2163, 2258, 2259, 2300, 2299, 3939, 3940, 3981, 3980
2164, 2259, 2260, 2301, 2300, 3940, 3941, 3982, 3981
2165, 2260, 2261, 2302, 2301, 3941, 3942, 3983, 3982
2166, 2261, 2262, 2303, 2302, 3942, 3943, 3984, 3983
2167, 2262, 2263, 2304, 2303, 3943, 3944, 3985, 3984
2168, 2263, 2264, 2305, 2304, 3944, 3945, 3986, 3985
2169, 2264, 2265, 2306, 2305, 3945, 3946, 3987, 3986
2170, 2265, 2266, 2307, 2306, 3946, 3947, 3988, 3987
2171, 2266, 2267, 2308, 2307, 3947, 3948, 3989, 3988
2172, 2267, 2268, 2309, 2308, 3948, 3949, 3990, 3989
2173, 2268, 2269, 2310, 2309, 3949, 3950, 3991, 3990
2174, 2269, 2270, 2311, 2310, 3950, 3951, 3992, 3991
2175, 2270, 2271, 2312, 2311, 3951, 3952, 3993, 3992
2176, 2271, 2272, 2313, 2312, 3952, 3953, 3994, 3993
2177, 2272, 2273, 2314, 2313, 3953, 3954, 3995, 3994
2178, 2273, 2274, 2315, 2314, 3954, 3955, 3996, 3995
2179, 2274, 2275, 2316, 2315, 3955, 3956, 3997, 3996
2180, 2275, 2276, 2317, 2316, 3956, 3957, 3998, 3997
2181, 2276, 2277, 2318, 2317, 3957, 3958, 3999, 3998
2182, 2277, 2278, 2319, 2318, 3958, 3959, 4000, 3999
2183, 2278, 2279, 2320, 2319, 3959, 3960, 4001, 4000
2184, 2279, 2280, 2321, 2320, 3960, 3961, 4002, 4001
2185, 2280, 2281, 2322, 2321, 3961, 3962, 4003, 4002
2186, 2281, 2282, 2323, 2322, 3962, 3963, 4004, 4003
2187, 2282, 2283, 2324, 2323, 3963, 3964, 4005, 4004
2188, 2283, 2284, 2325, 2324, 3964, 3965, 4006, 4005
2189, 2284, 2285, 2326, 2325, 3965, 3966, 4007, 4006
2190, 2285, 2286, 2327, 2326, 3966, 3967, 4008, 4007
2191, 2286, 2287, 2328, 2327, 3967, 3968, 4009, 4008
2192, 2287, 2288, 2329, 2328, 3968, 3969, 4010, 4009
2193, 2288, 2289, 2330, 2329, 3969, 3970, 4011, 4010
2194, 2289, 2290, 2331, 2330, 3970, 3971, 4012, 4011
2195, 2290, 2291, 2332, 2331, 3971, 3972, 4013, 4012
2196, 2291, 2292, 2333, 2332, 3972, 3973, 4014, 4013
2197, 2292, 2293, 2334, 2333, 3973, 3974, 4015, 4014
2198, 2293, 2294, 2335, 2334, 3974, 3975, 4016, 4015
2199, 2294, 2295, 2336, 2335, 3975, 3976, 4017, 4016
2200, 2295, 2296, 2337, 2336, 3976, 3977, 4018, 4017
2201, 2297, 2298, 2339, 2338, 3978, 3979, 4020, 4019
2202, 2298, 2299, 2340, 2339, 3979, 3980, 4021, 4020
2203, 2299, 2300, 2341, 2340, 3980, 3981, 4022, 4021
2204, 2300, 2301, 2342, 2341, 3981, 3982, 4023, 4022
2205, 2301, 2302, 2343, 2342, 3982, 3983, 4024, 4023
2206, 2302, 2303, 2344, 2343, 3983, 3984, 4025, 4024
2207, 2303, 2304, 2345, 2344, 3984, 3985, 4026, 4025
2208, 2304, 2305, 2346, 2345, 3985, 3986, 4027, 4026
2209, 2305, 2306, 2347, 2346, 3986, 3987, 4028, 4027
2210, 2306, 2307, 2348, 2347, 3987, 3988, 4029, 4028
2211, 2307, 2308, 2349, 2348, 3988, 3989, 4030, 4029
2212, 2308, 2309, 2350, 2349, 3989, 3990, 4031, 4030
2213, 2309, 2310, 2351, 2350, 3990, 3991, 4032, 4031
2214, 2310, 2311, 2352, 2351, 3991, 3992, 4033, 4032
2215, 2311, 2312, 2353, 2352, 3992, 3993, 4034, 4033
2216, 2312, 2313, 2354, 2353, 3993, 3994, 4035, 4034
2217, 2313, 2314, 2355, 2354, 3994, 3995, 4036, 4035
2218, 2314, 2315, 2356, 2355, 3995, 3996, 4037, 4036
2219, 2315, 2316, 2357, 2356, 3996, 3997, 4038, 4037
2220, 2316, 2317, 2358, 2357, 3997, 3998, 4039, 4038
2221, 2317, 2318, 2359, 2358, 3998, 3999, 4040, 4039
2222, 2318, 2319, 2360, 2359, 3999, 4000, 4041, 4040
2223, 2319, 2320, 2361, 2360, 4000, 4001, 4042, 4041
2224, 2320, 2321, 2362, 2361, 4001, 4002, 4043, 4042
2225, 2321, 2322, 2363, 2362, 4002, 4003, 4044, 4043
2226, 2322, 2323, 2364, 2363, 4003, 4004, 4045, 4044
2227, 2323, 2324, 2365, 2364, 4004, 4005, 4046, 4045
2228, 2324, 2325, 2366, 2365, 4005, 4006, 4047, 4046
2229, 2325, 2326, 2367, 2366, 4006, 4007, 4048, 4047
2230, 2326, 2327, 2368, 2367, 4007, 4008, 4049, 4048
2231, 2327, 2328, 2369, 2368, 4008, 4009, 4050, 4049
2232, 2328, 2329, 2370, 2369, 4009, 4010, 4051, 4050
2233, 2329, 2330, 2371, 2370, 4010, 4011, 4052, 4051
2234, 2330, 2331, 2372, 2371, 4011, 4012, 4053, 4052
2235, 2331, 2332, 2373, 2372, 4012, 4013, 4054, 4053
2236, 2332, 2333, 2374, 2373, 4013, 4014, 4055, 4054
2237, 2333, 2334, 2375, 2374, 4014, 4015, 4056, 4055
2238, 2334, 2335, 2376, 2375, 4015, 4016, 4057, 4056
2239, 2335, 2336, 2377, 2376, 4016, 4017, 4058, 4057
2240, 2336, 2337, 2378, 2377, 4017, 4018, 4059, 4058
2241, 2338, 2339, 2380, 2379, 4019, 4020, 4061, 4060
2242, 2339, 2340, 2381, 2380, 4020, 4021, 4062, 4061
2243, 2340, 2341, 2382, 2381, 4021, 4022, 4063, 4062
2244, 2341, 2342, 2383, 2382, 4022, 4023, 4064, 4063
2245, 2342, 2343, 2384, 2383, 4023, 4024, 4065, 4064
2246, 2343, 2344, 2385, 2384, 4024, 4025, 4066, 4065
2247, 2344, 2345, 2386, 2385, 4025, 4026, 4067, 4066
2248, 2345, 2346, 2387, 2386, 4026, 4027, 4068, 4067
2249, 2346, 2347, 2388, 2387, 4027, 4028, 4069, 4068
2250, 2347, 2348, 2389, 2388, 4028, 4029, 4070, 4069
2251, 2348, 2349, 2390, 2389, 4029, 4030, 4071, 4070
2252, 2349, 2350, 2391, 2390, 4030, 4031, 4072, 4071
2253, 2350, 2351, 2392, 2391, 4031, 4032, 4073, 4072
2254, 2351, 2352, 2393, 2392, 4032, 4033, 4074, 4073
2255, 2352, 2353, 2394, 2393, 4033, 4034, 4075, 4074
2256, 2353, 2354, 2395, 2394, 4034, 4035, 4076, 4075
2257, 2354, 2355, 2396, 2395, 4035, 4036, 4077, 4076
2258, 2355, 2356, 2397, 2396, 4036, 4037, 4078, 4077
2259, 2356, 2357, 2398, 2397, 4037, 4038, 4079, 4078
2260, 2357, 2358, 2399, 2398, 4038, 4039, 4080, 4079
2261, 2358, 2359, 2400, 2399, 4039, 4040, 4081, 4080
2262, 2359, 2360, 2401, 2400, 4040, 4041, 4082, 4081
2263, 2360, 2361, 2402, 2401, 4041, 4042, 4083, 4082
2264, 2361, 2362, 2403, 2402, 4042, 4043, 4084, 4083
2265, 2362, 2363, 2404, 2403, 4043, 4044, 4085, 4084
2266, 2363, 2364, 2405, 2404, 4044, 4045, 4086, 4085
2267, 2364, 2365, 2406, 2405, 4045, 4046, 4087, 4086
2268, 2365, 2366, 2407, 2406, 4046, 4047, 4088, 4087
2269, 2366, 2367, 2408, 2407, 4047, 4048, 4089, 4088
2270, 2367, 2368, 2409, 2408, 4048, 4049, 4090, 4089
2271, 2368, 2369, 2410, 2409, 4049, 4050, 4091, 4090
2272, 2369, 2370, 2411, 2410, 4050, 4051, 4092, 4091
2273, 2370, 2371, 2412, 2411, 4051, 4052, 4093, 4092
2274, 2371, 2372, 2413, 2412, 4052, 4053, 4094, 4093
2275, 2372, 2373, 2414, 2413, 4053, 4054, 4095, 4094
2276, 2373, 2374, 2415, 2414, 4054, 4055, 4096, 4095
2277, 2374, 2375, 2416, 2415, 4055, 4056, 4097, 4096
2278, 2375, 2376, 2417, 2416, 4056, 4057, 4098, 4097
2279, 2376, 2377, 2418, 2417, 4057, 4058, 4099, 4098
2280, 2377, 2378, 2419, 2418, 4058, 4059, 4100, 4099
2281, 2379, 2380, 2421, 2420, 4060, 4061, 4102, 4101
2282, 2380, 2381, 2422, 2421, 4061, 4062, 4103, 4102
2283, 2381, 2382, 2423, 2422, 4062, 4063, 4104, 4103
2284, 2382, 2383, 2424, 2423, 4063, 4064, 4105, 4104
2285, 2383, 2384, 2425, 2424, 4064, 4065, 4106, 4105
2286, 2384, 2385, 2426, 2425, 4065, 4066, 4107, 4106
2287, 2385, 2386, 2427, 2426, 4066, 4067, 4108, 4107
2288, 2386, 2387, 2428, 2427, 4067, 4068, 4109, 4108
2289, 2387, 2388, 2429, 2428, 4068, 4069, 4110, 4109
2290, 2388, 2389, 2430, 2429, 4069, 4070, 4111, 4110
2291, 2389, 2390, 2431, 2430, 4070, 4071, 4112, 4111
2292, 2390, 2391, 2432, 2431, 4071, 4072, 4113, 4112
2293, 2391, 2392, 2433, 2432, 4072, 4073, 4114, 4113
2294, 2392, 2393, 2434, 2433, 4073, 4074, 4115, 4114
2295, 2393, 2394, 2435, 2434, 4074, 4075, 4116, 4115
2296, 2394, 2395, 2436, 2435, 4075, 4076, 4117, 4116
2297, 2395, 2396, 2437, 2436, 4076, 4077, 4118, 4117
2298, 2396, 2397, 2438, 2437, 4077, 4078, 4119, 4118
2299, 2397, 2398, 2439, 2438, 4078, 4079, 4120, 4119
2300, 2398, 2399, 2440, 2439, 4079, 4080, 4121, 4120
2301, 2399, 2400, 2441, 2440, 4080, 4081, 4122, 4121
2302, 2400, 2401, 2442, 2441, 4081, 4082, 4123, 4122
2303, 2401, 2402, 2443, 2442, 4082, 4083, 4124, 4123
2304, 2402, 2403, 2444, 2443, 4083, 4084, 4125, 4124
2305, 2403, 2404, 2445, 2444, 4084, 4085, 4126, 4125
2306, 2404, 2405, 2446, 2445, 4085, 4086, 4127, 4126
2307, 2405, 2406, 2447, 2446, 4086, 4087, 4128, 4127
2308, 2406, 2407, 2448, 2447, 4087, 4088, 4129, 4128
2309, 2407, 2408, 2449, 2448, 4088, 4089, 4130, 4129
2310, 2408, 2409, 2450, 2449, 4089, 4090, 4131, 4130
2311, 2409, 2410, 2451, 2450, 4090, 4091, 4132, 4131
2312, 2410, 2411, 2452, 2451, 4091, 4092, 4133, 4132
2313, 2411, 2412, 2453, 2452, 4092, 4093, 4134, 4133
2314, 2412, 2413, 2454, 2453, 4093, 4094, 4135, 4134
2315, 2413, 2414, 2455, 2454, 4094, 4095, 4136, 4135
2316, 2414, 2415, 2456, 2455, 4095, 4096, 4137, 4136
2317, 2415, 2416, 2457, 2456, 4096, 4097, 4138, 4137
2318, 2416, 2417, 2458, 2457, 4097, 4098, 4139, 4138
2319, 2417, 2418, 2459, 2458, 4098, 4099, 4140, 4139
2320, 2418, 2419, 2460, 2459, 4099, 4100, 4141, 4140
2321, 2420, 2421, 2462, 2461, 4101, 4102, 4143, 4142
2322, 2421, 2422, 2463, 2462, 4102, 4103, 4144, 4143
2323, 2422, 2423, 2464, 2463, 4103, 4104, 4145, 4144
2324, 2423, 2424, 2465, 2464, 4104, 4105, 4146, 4145
2325, 2424, 2425, 2466, 2465, 4105, 4106, 4147, 4146
2326, 2425, 2426, 2467, 2466, 4106, 4107, 4148, 4147
2327, 2426, 2427, 2468, 2467, 4107, 4108, 4149, 4148
2328, 2427, 2428, 2469, 2468, 4108, 4109, 4150, 4149
2329, 2428, 2429, 2470, 2469, 4109, 4110, 4151, 4150
2330, 2429, 2430, 2471, 2470, 4110, 4111, 4152, 4151
2331, 2430, 2431, 2472, 2471, 4111, 4112, 4153, 4152
2332, 2431, 2432, 2473, 2472, 4112, 4113, 4154, 4153
2333, 2432, 2433, 2474, 2473, 4113, 4114, 4155, 4154
2334, 2433, 2434, 2475, 2474, 4114, 4115, 4156, 4155
2335, 2434, 2435, 2476, 2475, 4115, 4116, 4157, 4156
2336, 2435, 2436, 2477, 2476, 4116, 4117, 4158, 4157
2337, 2436, 2437, 2478, 2477, 4117, 4118, 4159, 4158
2338, 2437, 2438, 2479, 2478, 4118, 4119, 4160, 4159
2339, 2438, 2439, 2480, 2479, 4119, 4120, 4161, 4160
2340, 2439, 2440, 2481, 2480, 4120, 4121, 4162, 4161
2341, 2440, 2441, 2482, 2481, 4121, 4122, 4163, 4162
2342, 2441, 2442, 2483, 2482, 4122, 4123, 4164, 4163
2343, 2442, 2443, 2484, 2483, 4123, 4124, 4165, 4164
2344, 2443, 2444, 2485, 2484, 4124, 4125, 4166, 4165
2345, 2444, 2445, 2486, 2485, 4125, 4126, 4167, 4166
2346, 2445, 2446, 2487, 2486, 4126, 4127, 4168, 4167
2347, 2446, 2447, 2488, 2487, 4127, 4128, 4169, 4168
2348, 2447, 2448, 2489, 2488, 4128, 4129, 4170, 4169
2349, 2448, 2449, 2490, 2489, 4129, 4130, 4171, 4170
2350, 2449, 2450, 2491, 2490, 4130, 4131, 4172, 4171
2351, 2450, 2451, 2492, 2491, 4131, 4132, 4173, 4172
2352, 2451, 2452, 2493, 2492, 4132, 4133, 4174, 4173
2353, 2452, 2453, 2494, 2493, 4133, 4134, 4175, 4174
2354, 2453, 2454, 2495, 2494, 4134, 4135, 4176, 4175
2355, 2454, 2455, 2496, 2495, 4135, 4136, 4177, 4176
2356, 2455, 2456, 2497, 2496, 4136, 4137, 4178, 4177
2357, 2456, 2457, 2498, 2497, 4137, 4138, 4179, 4178
2358, 2457, 2458, 2499, 2498, 4138, 4139, 4180, 4179
2359, 2458, 2459, 2500, 2499, 4139, 4140, 4181, 4180
2360, 2459, 2460, 2501, 2500, 4140, 4141, 4182, 4181
2361, 2461, 2462, 2503, 2502, 4142, 4143, 4184, 4183
2362, 2462, 2463, 2504, 2503, 4143, 4144, 4185, 4184
2363, 2463, 2464, 2505, 2504, 4144, 4145, 4186, 4185
2364, 2464, 2465, 2506, 2505, 4145, 4146, 4187, 4186
2365, 2465, 2466, 2507, 2506, 4146, 4147, 4188, 4187
2366, 2466, 2467, 2508, 2507, 4147, 4148, 4189, 4188
2367, 2467, 2468, 2509, 2508, 4148, 4149, 4190, 4189
2368, 2468, 2469, 2510, 2509, 4149, 4150, 4191, 4190
2369, 2469, 2470, 2511, 2510, 4150, 4151, 4192, 4191
2370, 2470, 2471, 2512, 2511, 4151, 4152, 4193, 4192
2371, 2471, 2472, 2513, 2512, 4152, 4153, 4194, 4193
2372, 2472, 2473, 2514, 2513, 4153, 4154, 4195, 4194
2373, 2473, 2474, 2515, 2514, 4154, 4155, 4196, 4195
2374, 2474, 2475, 2516, 2515, 4155, 4156, 4197, 4196
2375, 2475, 2476, 2517, 2516, 4156, 4157, 4198, 4197
2376, 2476, 2477, 2518, 2517, 4157, 4158, 4199, 4198
2377, 2477, 2478, 2519, 2518, 4158, 4159, 4200, 4199
2378, 2478, 2479, 2520, 2519, 4159, 4160, 4201, 4200
2379, 2479, 2480, 2521, 2520, 4160, 4161, 4202, 4201
2380, 2480, 2481, 2522, 2521, 4161, 4162, 4203, 4202
2381, 2481, 2482, 2523, 2522, 4162, 4163, 4204, 4203
2382, 2482, 2483, 2524, 2523, 4163, 4164, 4205, 4204
2383, 2483, 2484, 2525, 2524, 4164, 4165, 4206, 4205
2384, 2484, 2485, 2526, 2525, 4165, 4166, 4207, 4206
2385, 2485, 2486, 2527, 2526, 4166, 4167, 4208, 4207
2386, 2486, 2487, 2528, 2527, 4167, 4168, 4209, 4208
2387, 2487, 2488, 2529, 2528, 4168, 4169, 4210, 4209
2388, 2488, 2489, 2530, 2529, 4169, 4170, 4211, 4210
2389, 2489, 2490, 2531, 2530, 4170, 4171, 4212, 4211
2390, 2490, 2491, 2532, 2531, 4171, 4172, 4213, 4212
2391, 2491, 2492, 2533, 2532, 4172, 4173, 4214, 4213
2392, 2492, 2493, 2534, 2533, 4173, 4174, 4215, 4214
2393, 2493, 2494, 2535, 2534, 4174, 4175, 4216, 4215
2394, 2494, 2495, 2536, 2535, 4175, 4176, 4217, 4216
2395, 2495, 2496, 2537, 2536, 4176, 4177, 4218, 4217
2396, 2496, 2497, 2538, 2537, 4177, 4178, 4219, 4218
2397, 2497, 2498, 2539, 2538, 4178, 4179, 4220, 4219
2398, 2498, 2499, 2540, 2539, 4179, 4180, 4221, 4220
2399, 2499, 2500, 2541, 2540, 4180, 4181, 4222, 4221
2400, 2500, 2501, 2542, 2541, 4181, 4182, 4223, 4222
2401, 2502, 2503, 2544, 2543, 4183, 4184, 4225, 4224
2402, 2503, 2504, 2545, 2544, 4184, 4185, 4226, 4225
2403, 2504, 2505, 2546, 2545, 4185, 4186, 4227, 4226
2404, 2505, 2506, 2547, 2546, 4186, 4187, 4228, 4227
2405, 2506, 2507, 2548, 2547, 4187, 4188, 4229, 4228
2406, 2507, 2508, 2549, 2548, 4188, 4189, 4230, 4229
2407, 2508, 2509, 2550, 2549, 4189, 4190, 4231, 4230
2408, 2509, 2510, 2551, 2550, 4190, 4191, 4232, 4231
2409, 2510, 2511, 2552, 2551, 4191, 4192, 4233, 4232
2410, 2511, 2512, 2553, 2552, 4192, 4193, 4234, 4233
2411, 2512, 2513, 2554, 2553, 4193, 4194, 4235, 4234
2412, 2513, 2514, 2555, 2554, 4194, 4195, 4236, 4235
2413, 2514, 2515, 2556, 2555, 4195, 4196, 4237, 4236
2414, 2515, 2516, 2557, 2556, 4196, 4197, 4238, 4237
2415, 2516, 2517, 2558, 2557, 4197, 4198, 4239, 4238
2416, 2517, 2518, 2559, 2558, 4198, 4199, 4240, 4239
2417, 2518, 2519, 2560, 2559, 4199, 4200, 4241, 4240
2418, 2519, 2520, 2561, 2560, 4200, 4201, 4242, 4241
2419, 2520, 2521, 2562, 2561, 4201, 4202, 4243, 4242
2420, 2521, 2522, 2563, 2562, 4202, 4203, 4244, 4243
2421, 2522, 2523, 2564, 2563, 4203, 4204, 4245, 4244
2422, 2523, 2524, 2565, 2564, 4204, 4205, 4246, 4245
2423, 2524, 2525, 2566, 2565, 4205, 4206, 4247, 4246
2424, 2525, 2526, 2567, 2566, 4206, 4207, 4248, 4247
2425, 2526, 2527, 2568, 2567, 4207, 4208, 4249, 4248
2426, 2527, 2528, 2569, 2568, 4208, 4209, 4250, 4249
2427, 2528, 2529, 2570, 2569, 4209, 4210, 4251, 4250
2428, 2529, 2530, 2571, 2570, 4210, 4211, 4252, 4251
2429, 2530, 2531, 2572, 2571, 4211, 4212, 4253, 4252
2430, 2531, 2532, 2573, 2572, 4212, 4213, 4254, 4253
2431, 2532, 2533, 2574, 2573, 4213, 4214, 4255, 4254
2432, 2533, 2534, 2575, 2574, 4214, 4215, 4256, 4255
2433, 2534, 2535, 2576, 2575, 4215, 4216, 4257, 4256
2434, 2535, 2536, 2577, 2576, 4216, 4217, 4258, 4257
2435, 2536, 2537, 2578, 2577, 4217, 4218, 4259, 4258
2436, 2537, 2538, 2579, 2578, 4218, 4219, 4260, 4259
2437, 2538, 2539, 2580, 2579, 4219, 4220, 4261, 4260
2438, 2539, 2540, 2581, 2580, 4220, 4221, 4262, 4261
2439, 2540, 2541, 2582, 2581, 4221, 4222, 4263, 4262
2440, 2541, 2542, 2583, 2582, 4222, 4223, 4264, 4263
2441, 2543, 2544, 2585, 2584, 4224, 4225, 4266, 4265
2442, 2544, 2545, 2586, 2585, 4225, 4226, 4267, 4266
2443, 2545, 2546, 2587, 2586, 4226, 4227, 4268, 4267
2444, 2546, 2547, 2588, 2587, 4227, 4228, 4269, 4268
2445, 2547, 2548, 2589, 2588, 4228, 4229, 4270, 4269
2446, 2548, 2549, 2590, 2589, 4229, 4230, 4271, 4270
2447, 2549, 2550, 2591, 2590, 4230, 4231, 4272, 4271
2448, 2550, 2551, 2592, 2591, 4231, 4232, 4273, 4272
2449, 2551, 2552, 2593, 2592, 4232, 4233, 4274, 4273
2450, 2552, 2553, 2594, 2593, 4233, 4234, 4275, 4274
2451, 2553, 2554, 2595, 2594, 4234, 4235, 4276, 4275
2452, 2554, 2555, 2596, 2595, 4235, 4236, 4277, 4276
2453, 2555, 2556, 2597, 2596, 4236, 4237, 4278, 4277
2454, 2556, 2557, 2598, 2597, 4237, 4238, 4279, 4278
2455, 2557, 2558, 2599, 2598, 4238, 4239, 4280, 4279
2456, 2558, 2559, 2600, 2599, 4239, 4240, 4281, 4280
2457, 2559, 2560, 2601, 2600, 4240, 4241, 4282, 4281
2458, 2560, 2561, 2602, 2601, 4241, 4242, 4283, 4282
2459, 2561, 2562, 2603, 2602, 4242, 4243, 4284, 4283
2460, 2562, 2563, 2604, 2603, 4243, 4244, 4285, 4284
2461, 2563, 2564, 2605, 2604, 4244, 4245, 4286, 4285
2462, 2564, 2565, 2606, 2605, 4245, 4246, 4287, 4286
2463, 2565, 2566, 2607, 2606, 4246, 4247, 4288, 4287
2464, 2566, 2567, 2608, 2607, 4247, 4248, 4289, 4288
2465, 2567, 2568, 2609, 2608, 4248, 4249, 4290, 4289
2466, 2568, 2569, 2610, 2609, 4249, 4250, 4291, 4290
2467, 2569, 2570, 2611, 2610, 4250, 4251, 4292, 4291
2468, 2570, 2571, 2612, 2611, 4251, 4252, 4293, 4292
2469, 2571, 2572, 2613, 2612, 4252, 4253, 4294, 4293
2470, 2572, 2573, 2614, 2613, 4253, 4254, 4295, 4294
2471, 2573, 2574, 2615, 2614, 4254, 4255, 4296, 4295
2472, 2574, 2575, 2616, 2615, 4255, 4256, 4297, 4296
2473, 2575, 2576, 2617, 2616, 4256, 4257, 4298, 4297
2474, 2576, 2577, 2618, 2617, 4257, 4258, 4299, 4298
2475, 2577, 2578, 2619, 2618, 4258, 4259, 4300, 4299
2476, 2578, 2579, 2620, 2619, 4259, 4260, 4301, 4300
2477, 2579, 2580, 2621, 2620, 4260, 4261, 4302, 4301
2478, 2580, 2581, 2622, 2621, 4261, 4262, 4303, 4302
2479, 2581, 2582, 2623, 2622, 4262, 4263, 4304, 4303
2480, 2582, 2583, 2624, 2623, 4263, 4264, 4305, 4304
2481, 2584, 2585, 2626, 2625, 4265, 4266, 4307, 4306
2482, 2585, 2586, 2627, 2626, 4266, 4267, 4308, 4307
2483, 2586, 2587, 2628, 2627, 4267, 4268, 4309, 4308
2484, 2587, 2588, 2629, 2628, 4268, 4269, 4310, 4309
2485, 2588, 2589, 2630, 2629, 4269, 4270, 4311, 4310
2486, 2589, 2590, 2631, 2630, 4270, 4271, 4312, 4311
2487, 2590, 2591, 2632, 2631, 4271, 4272, 4313, 4312
2488, 2591, 2592, 2633, 2632, 4272, 4273, 4314, 4313
2489, 2592, 2593, 2634, 2633, 4273, 4274, 4315, 4314
2490, 2593, 2594, 2635, 2634, 4274, 4275, 4316, 4315
2491, 2594, 2595, 2636, 2635, 4275, 4276, 4317, 4316
2492, 2595, 2596, 2637, 2636, 4276, 4277, 4318, 4317
2493, 2596, 2597, 2638, 2637, 4277, 4278, 4319, 4318
2494, 2597, 2598, 2639, 2638, 4278, 4279, 4320, 4319
2495, 2598, 2599, 2640, 2639, 4279, 4280, 4321, 4320
2496, 2599, 2600, 2641, 2640, 4280, 4281, 4322, 4321
2497, 2600, 2601, 2642, 2641, 4281, 4282, 4323, 4322
2498, 2601, 2602, 2643, 2642, 4282, 4283, 4324, 4323
2499, 2602, 2603, 2644, 2643, 4283, 4284, 4325, 4324
2500, 2603, 2604, 2645, 2644, 4284, 4285, 4326, 4325
2501, 2604, 2605, 2646, 2645, 4285, 4286, 4327, 4326
2502, 2605, 2606, 2647, 2646, 4286, 4287, 4328, 4327
2503, 2606, 2607, 2648, 2647, 4287, 4288, 4329, 4328
2504, 2607, 2608, 2649, 2648, 4288, 4289, 4330, 4329
2505, 2608, 2609, 2650, 2649, 4289, 4290, 4331, 4330
2506, 2609, 2610, 2651, 2650, 4290, 4291, 4332, 4331
2507, 2610, 2611, 2652, 2651, 4291, 4292, 4333, 4332
2508, 2611, 2612, 2653, 2652, 4292, 4293, 4334, 4333
2509, 2612, 2613, 2654, 2653, 4293, 4294, 4335, 4334
2510, 2613, 2614, 2655, 2654, 4294, 4295, 4336, 4335
2511, 2614, 2615, 2656, 2655, 4295, 4296, 4337, 4336
2512, 2615, 2616, 2657, 2656, 4296, 4297, 4338, 4337
2513, 2616, 2617, 2658, 2657, 4297, 4298, 4339, 4338
2514, 2617, 2618, 2659, 2658, 4298, 4299, 4340, 4339
2515, 2618, 2619, 2660, 2659, 4299, 4300, 4341, 4340
2516, 2619, 2620, 2661, 2660, 4300, 4301, 4342, 4341
2517, 2620, 2621, 2662, 2661, 4301, 4302, 4343, 4342
2518, 2621, 2622, 2663, 2662, 4302, 4303, 4344, 4343
2519, 2622, 2623, 2664, 2663, 4303, 4304, 4345, 4344
2520, 2623, 2624, 2665, 2664, 4304, 4305, 4346, 4345
2521, 2625, 2626, 2667, 2666, 4306, 4307, 4348, 4347
2522, 2626, 2627, 2668, 2667, 4307, 4308, 4349, 4348
2523, 2627, 2628, 2669, 2668, 4308, 4309, 4350, 4349
2524, 2628, 2629, 2670, 2669, 4309, 4310, 4351, 4350
2525, 2629, 2630, 2671, 2670, 4310, 4311, 4352, 4351
2526, 2630, 2631, 2672, 2671, 4311, 4312, 4353, 4352
2527, 2631, 2632, 2673, 2672, 4312, 4313, 4354, 4353
2528, 2632, 2633, 2674, 2673, 4313, 4314, 4355, 4354
2529, 2633, 2634, 2675, 2674, 4314, 4315, 4356, 4355
2530, 2634, 2635, 2676, 2675, 4315, 4316, 4357, 4356
2531, 2635, 2636, 2677, 2676, 4316, 4317, 4358, 4357
2532, 2636, 2637, 2678, 2677, 4317, 4318, 4359, 4358
2533, 2637, 2638, 2679, 2678, 4318, 4319, 4360, 4359
2534, 2638, 2639, 2680, 2679, 4319, 4320, 4361, 4360
2535, 2639, 2640, 2681, 2680, 4320, 4321, 4362, 4361
2536, 2640, 2641, 2682, 2681, 4321, 4322, 4363, 4362
2537, 2641, 2642, 2683, 2682, 4322, 4323, 4364, 4363
2538, 2642, 2643, 2684, 2683, 4323, 4324, 4365, 4364
2539, 2643, 2644, 2685, 2684, 4324, 4325, 4366, 4365
2540, 2644, 2645, 2686, 2685, 4325, 4326, 4367, 4366
2541, 2645, 2646, 2687, 2686, 4326, 4327, 4368, 4367
2542, 2646, 2647, 2688, 2687, 4327, 4328, 4369, 4368
2543, 2647, 2648, 2689, 2688, 4328, 4329, 4370, 4369
2544, 2648, 2649, 2690, 2689, 4329, 4330, 4371, 4370
2545, 2649, 2650, 2691, 2690, 4330, 4331, 4372, 4371
2546, 2650, 2651, 2692, 2691, 4331, 4332, 4373, 4372
2547, 2651, 2652, 2693, 2692, 4332, 4333, 4374, 4373
2548, 2652, 2653, 2694, 2693, 4333, 4334, 4375, 4374
2549, 2653, 2654, 2695, 2694, 4334, 4335, 4376, 4375
2550, 2654, 2655, 2696, 2695, 4335, 4336, 4377, 4376
2551, 2655, 2656, 2697, 2696, 4336, 4337, 4378, 4377
2552, 2656, 2657, 2698, 2697, 4337, 4338, 4379, 4378
2553, 2657, 2658, 2699, 2698, 4338, 4339, 4380, 4379
2554, 2658, 2659, 2700, 2699, 4339, 4340, 4381, 4380
2555, 2659, 2660, 2701, 2700, 4340, 4341, 4382, 4381
2556, 2660, 2661, 2702, 2701, 4341, 4342, 4383, 4382
2557, 2661, 2662, 2703, 2702, 4342, 4343, 4384, 4383
2558, 2662, 2663, 2704, 2703, 4343, 4344, 4385, 4384
2559, 2663, 2664, 2705, 2704, 4344, 4345, 4386, 4385
2560, 2664, 2665, 2706, 2705, 4345, 4346, 4387, 4386
2561, 2666, 2667, 2708, 2707, 4347, 4348, 4389, 4388
2562, 2667, 2668, 2709, 2708, 4348, 4349, 4390, 4389
2563, 2668, 2669, 2710, 2709, 4349, 4350, 4391, 4390
2564, 2669, 2670, 2711, 2710, 4350, 4351, 4392, 4391
2565, 2670, 2671, 2712, 2711, 4351, 4352, 4393, 4392
2566, 2671, 2672, 2713, 2712, 4352, 4353, 4394, 4393
2567, 2672, 2673, 2714, 2713, 4353, 4354, 4395, 4394
2568, 2673, 2674, 2715, 2714, 4354, 4355, 4396, 4395
2569, 2674, 2675, 2716, 2715, 4355, 4356, 4397, 4396
2570, 2675, 2676, 2717, 2716, 4356, 4357, 4398, 4397
2571, 2676, 2677, 2718, 2717, 4357, 4358, 4399, 4398
2572, 2677, 2678, 2719, 2718, 4358, 4359, 4400, 4399
2573, 2678, 2679, 2720, 2719, 4359, 4360, 4401, 4400
2574, 2679, 2680, 2721, 2720, 4360, 4361, 4402, 4401
2575, 2680, 2681, 2722, 2721, 4361, 4362, 4403, 4402
2576, 2681, 2682, 2723, 2722, 4362, 4363, 4404, 4403
2577, 2682, 2683, 2724, 2723, 4363, 4364, 4405, 4404
2578, 2683, 2684, 2725, 2724, 4364, 4365, 4406, 4405
2579, 2684, 2685, 2726, 2725, 4365, 4366, 4407, 4406
2580, 2685, 2686, 2727, 2726, 4366, 4367, 4408, 4407
2581, 2686, 2687, 2728, 2727, 4367, 4368, 4409, 4408
2582, 2687, 2688, 2729, 2728, 4368, 4369, 4410, 4409
2583, 2688, 2689, 2730, 2729, 4369, 4370, 4411, 4410
2584, 2689, 2690, 2731, 2730, 4370, 4371, 4412, 4411
2585, 2690, 2691, 2732, 2731, 4371, 4372, 4413, 4412
2586, 2691, 2692, 2733, 2732, 4372, 4373, 4414, 4413
2587, 2692, 2693, 2734, 2733, 4373, 4374, 4415, 4414
2588, 2693, 2694, 2735, 2734, 4374, 4375, 4416, 4415
2589, 2694, 2695, 2736, 2735, 4375, 4376, 4417, 4416
2590, 2695, 2696, 2737, 2736, 4376, 4377, 4418, 4417
2591, 2696, 2697, 2738, 2737, 4377, 4378, 4419, 4418
2592, 2697, 2698, 2739, 2738, 4378, 4379, 4420, 4419
2593, 2698, 2699, 2740, 2739, 4379, 4380, 4421, 4420
2594, 2699, 2700, 2741, 2740, 4380, 4381, 4422, 4421
2595, 2700, 2701, 2742, 2741, 4381, 4382, 4423, 4422
2596, 2701, 2702, 2743, 2742, 4382, 4383, 4424, 4423
2597, 2702, 2703, 2744, 2743, 4383, 4384, 4425, 4424
2598, 2703, 2704, 2745, 2744, 4384, 4385, 4426, 4425
2599, 2704, 2705, 2746, 2745, 4385, 4386, 4427, 4426
2600, 2705, 2706, 2747, 2746, 4386, 4387, 4428, 4427
2601, 2707, 2708, 2749, 2748, 4388, 4389, 4430, 4429
2602, 2708, 2709, 2750, 2749, 4389, 4390, 4431, 4430
2603, 2709, 2710, 2751, 2750, 4390, 4391, 4432, 4431
2604, 2710, 2711, 2752, 2751, 4391, 4392, 4433, 4432
2605, 2711, 2712, 2753, 2752, 4392, 4393, 4434, 4433
2606, 2712, 2713, 2754, 2753, 4393, 4394, 4435, 4434
2607, 2713, 2714, 2755, 2754, 4394, 4395, 4436, 4435
2608, 2714, 2715, 2756, 2755, 4395, 4396, 4437, 4436
2609, 2715, 2716, 2757, 2756, 4396, 4397, 4438, 4437
2610, 2716, 2717, 2758, 2757, 4397, 4398, 4439, 4438
2611, 2717, 2718, 2759, 2758, 4398, 4399, 4440, 4439
2612, 2718, 2719, 2760, 2759, 4399, 4400, 4441, 4440
2613, 2719, 2720, 2761, 2760, 4400, 4401, 4442, 4441
2614, 2720, 2721, 2762, 2761, 4401, 4402, 4443, 4442
2615, 2721, 2722, 2763, 2762, 4402, 4403, 4444, 4443
2616, 2722, 2723, 2764, 2763, 4403, 4404, 4445, 4444
2617, 2723, 2724, 2765, 2764, 4404, 4405, 4446, 4445
2618, 2724, 2725, 2766, 2765, 4405, 4406, 4447, 4446
2619, 2725, 2726, 2767, 2766, 4406, 4407, 4448, 4447
2620, 2726, 2727, 2768, 2767, 4407, 4408, 4449, 4448
2621, 2727, 2728, 2769, 2768, 4408, 4409, 4450, 4449
2622, 2728, 2729, 2770, 2769, 4409, 4410, 4451, 4450
2623, 2729, 2730, 2771, 2770, 4410, 4411, 4452, 4451
2624, 2730, 2731, 2772, 2771, 4411, 4412, 4453, 4452
2625, 2731, 2732, 2773, 2772, 4412, 4413, 4454, 4453
2626, 2732, 2733, 2774, 2773, 4413, 4414, 4455, 4454
2627, 2733, 2734, 2775, 2774, 4414, 4415, 4456, 4455
2628, 2734, 2735, 2776, 2775, 4415, 4416, 4457, 4456
2629, 2735, 2736, 2777, 2776, 4416, 4417, 4458, 4457
2630, 2736, 2737, 2778, 2777, 4417, 4418, 4459, 4458
2631, 2737, 2738, 2779, 2778, 4418, 4419, 4460, 4459
2632, 2738, 2739, 2780, 2779, 4419, 4420, 4461, 4460
2633, 2739, 2740, 2781, 2780, 4420, 4421, 4462, 4461
2634, 2740, 2741, 2782, 2781, 4421, 4422, 4463, 4462
2635, 2741, 2742, 2783, 2782, 4422, 4423, 4464, 4463
2636, 2742, 2743, 2784, 2783, 4423, 4424, 4465, 4464
2637, 2743, 2744, 2785, 2784, 4424, 4425, 4466, 4465
2638, 2744, 2745, 2786, 2785, 4425, 4426, 4467, 4466
2639, 2745, 2746, 2787, 2786, 4426, 4427, 4468, 4467
2640, 2746, 2747, 2788, 2787, 4427, 4428, 4469, 4468
2641, 2748, 2749, 2790, 2789, 4429, 4430, 4471, 4470
2642, 2749, 2750, 2791, 2790, 4430, 4431, 4472, 4471
2643, 2750, 2751, 2792, 2791, 4431, 4432, 4473, 4472
2644, 2751, 2752, 2793, 2792, 4432, 4433, 4474, 4473
2645, 2752, 2753, 2794, 2793, 4433, 4434, 4475, 4474
2646, 2753, 2754, 2795, 2794, 4434, 4435, 4476, 4475
2647, 2754, 2755, 2796, 2795, 4435, 4436, 4477, 4476
2648, 2755, 2756, 2797, 2796, 4436, 4437, 4478, 4477
2649, 2756, 2757, 2798, 2797, 4437, 4438, 4479, 4478
2650, 2757, 2758, 2799, 2798, 4438, 4439, 4480, 4479
2651, 2758, 2759, 2800, 2799, 4439, 4440, 4481, 4480
2652, 2759, 2760, 2801, 2800, 4440, 4441, 4482, 4481
2653, 2760, 2761, 2802, 2801, 4441, 4442, 4483, 4482
2654, 2761, 2762, 2803, 2802, 4442, 4443, 4484, 4483
2655, 2762, 2763, 2804, 2803, 4443, 4444, 4485, 4484
2656, 2763, 2764, 2805, 2804, 4444, 4445, 4486, 4485
2657, 2764, 2765, 2806, 2805, 4445, 4446, 4487, 4486
2658, 2765, 2766, 2807, 2806, 4446, 4447, 4488, 4487
2659, 2766, 2767, 2808, 2807, 4447, 4448, 4489, 4488
2660, 2767, 2768, 2809, 2808, 4448, 4449, 4490, 4489
2661, 2768, 2769, 2810, 2809, 4449, 4450, 4491, 4490
2662, 2769, 2770, 2811, 2810, 4450, 4451, 4492, 4491
2663, 2770, 2771, 2812, 2811, 4451, 4452, 4493, 4492
2664, 2771, 2772, 2813, 2812, 4452, 4453, 4494, 4493
2665, 2772, 2773, 2814, 2813, 4453, 4454, 4495, 4494
2666, 2773, 2774, 2815, 2814, 4454, 4455, 4496, 4495
2667, 2774, 2775, 2816, 2815, 4455, 4456, 4497, 4496
2668, 2775, 2776, 2817, 2816, 4456, 4457, 4498, 4497
2669, 2776, 2777, 2818, 2817, 4457, 4458, 4499, 4498
2670, 2777, 2778, 2819, 2818, 4458, 4459, 4500, 4499
2671, 2778, 2779, 2820, 2819, 4459, 4460, 4501, 4500
2672, 2779, 2780, 2821, 2820, 4460, 4461, 4502, 4501
2673, 2780, 2781, 2822, 2821, 4461, 4462, 4503, 4502
2674, 2781, 2782, 2823, 2822, 4462, 4463, 4504, 4503
2675, 2782, 2783, 2824, 2823, 4463, 4464, 4505, 4504
2676, 2783, 2784, 2825, 2824, 4464, 4465, 4506, 4505
2677, 2784, 2785, 2826, 2825, 4465, 4466, 4507, 4506
2678, 2785, 2786, 2827, 2826, 4466, 4467, 4508, 4507
2679, 2786, 2787, 2828, 2827, 4467, 4468, 4509, 4508
2680, 2787, 2788, 2829, 2828, 4468, 4469, 4510, 4509
2681, 2789, 2790, 2831, 2830, 4470, 4471, 4512, 4511
2682, 2790, 2791, 2832, 2831, 4471, 4472, 4513, 4512
2683, 2791, 2792, 2833, 2832, 4472, 4473, 4514, 4513
2684, 2792, 2793, 2834, 2833, 4473, 4474, 4515, 4514
2685, 2793, 2794, 2835, 2834, 4474, 4475, 4516, 4515
2686, 2794, 2795, 2836, 2835, 4475, 4476, 4517, 4516
2687, 2795, 2796, 2837, 2836, 4476, 4477, 4518, 4517
2688, 2796, 2797, 2838, 2837, 4477, 4478, 4519, 4518
2689, 2797, 2798, 2839, 2838, 4478, 4479, 4520, 4519
2690, 2798, 2799, 2840, 2839, 4479, 4480, 4521, 4520
2691, 2799, 2800, 2841, 2840, 4480, 4481, 4522, 4521
2692, 2800, 2801, 2842, 2841, 4481, 4482, 4523, 4522
2693, 2801, 2802, 2843, 2842, 4482, 4483, 4524, 4523
2694, 2802, 2803, 2844, 2843, 4483, 4484, 4525, 4524
2695, 2803, 2804, 2845, 2844, 4484, 4485, 4526, 4525
2696, 2804, 2805, 2846, 2845, 4485, 4486, 4527, 4526
2697, 2805, 2806, 2847, 2846, 4486, 4487, 4528, 4527
2698, 2806, 2807, 2848, 2847, 4487, 4488, 4529, 4528
2699, 2807, 2808, 2849, 2848, 4488, 4489, 4530, 4529
2700, 2808, 2809, 2850, 2849, 4489, 4490, 4531, 4530
2701, 2809, 2810, 2851, 2850, 4490, 4491, 4532, 4531
2702, 2810, 2811, 2852, 2851, 4491, 4492, 4533, 4532
2703, 2811, 2812, 2853, 2852, 4492, 4493, 4534, 4533
2704, 2812, 2813, 2854, 2853, 4493, 4494, 4535, 4534
2705, 2813, 2814, 2855, 2854, 4494, 4495, 4536, 4535
2706, 2814, 2815, 2856, 2855, 4495, 4496, 4537, 4536
2707, 2815, 2816, 2857, 2856, 4496, 4497, 4538, 4537
2708, 2816, 2817, 2858, 2857, 4497, 4498, 4539, 4538
2709, 2817, 2818, 2859, 2858, 4498, 4499, 4540, 4539
2710, 2818, 2819, 2860, 2859, 4499, 4500, 4541, 4540
2711, 2819, 2820, 2861, 2860, 4500, 4501, 4542, 4541
2712, 2820, 2821, 2862, 2861, 4501, 4502, 4543, 4542
2713, 2821, 2822, 2863, 2862, 4502, 4503, 4544, 4543
2714, 2822, 2823, 2864, 2863, 4503, 4504, 4545, 4544
2715, 2823, 2824, 2865, 2864, 4504, 4505, 4546, 4545
2716, 2824, 2825, 2866, 2865, 4505, 4506, 4547, 4546
2717, 2825, 2826, 2867, 2866, 4506, 4507, 4548, 4547
2718, 2826, 2827, 2868, 2867, 4507, 4508, 4549, 4548
2719, 2827, 2828, 2869, 2868, 4508, 4509, 4550, 4549
2720, 2828, 2829, 2870, 2869, 4509, 4510, 4551, 4550
2721, 2830, 2831, 2872, 2871, 4511, 4512, 4553, 4552
2722, 2831, 2832, 2873, 2872, 4512, 4513, 4554, 4553
2723, 2832, 2833, 2874, 2873, 4513, 4514, 4555, 4554
2724, 2833, 2834, 2875, 2874, 4514, 4515, 4556, 4555
2725, 2834, 2835, 2876, 2875, 4515, 4516, 4557, 4556
2726, 2835, 2836, 2877, 2876, 4516, 4517, 4558, 4557
2727, 2836, 2837, 2878, 2877, 4517, 4518, 4559, 4558
2728, 2837, 2838, 2879, 2878, 4518, 4519, 4560, 4559
2729, 2838, 2839, 2880, 2879, 4519, 4520, 4561, 4560
2730, 2839, 2840, 2881, 2880, 4520, 4521, 4562, 4561
2731, 2840, 2841, 2882, 2881, 4521, 4522, 4563, 4562
2732, 2841, 2842, 2883, 2882, 4522, 4523, 4564, 4563
2733, 2842, 2843, 2884, 2883, 4523, 4524, 4565, 4564
2734, 2843, 2844, 2885, 2884, 4524, 4525, 4566, 4565
2735, 2844, 2845, 2886, 2885, 4525, 4526, 4567, 4566
2736, 2845, 2846, 2887, 2886, 4526, 4527, 4568, 4567
2737, 2846, 2847, 2888, 2887, 4527, 4528, 4569, 4568
2738, 2847, 2848, 2889, 2888, 4528, 4529, 4570, 4569
2739, 2848, 2849, 2890, 2889, 4529, 4530, 4571, 4570
2740, 2849, 2850, 2891, 2890, 4530, 4531, 4572, 4571
2741, 2850, 2851, 2892, 2891, 4531, 4532, 4573, 4572
2742, 2851, 2852, 2893, 2892, 4532, 4533, 4574, 4573
2743, 2852, 2853, 2894, 2893, 4533, 4534, 4575, 4574
2744, 2853, 2854, 2895, 2894, 4534, 4535, 4576, 4575
2745, 2854, 2855, 2896, 2895, 4535, 4536, 4577, 4576
2746, 2855, 2856, 2897, 2896, 4536, 4537, 4578, 4577
2747, 2856, 2857, 2898, 2897, 4537, 4538, 4579, 4578
2748, 2857, 2858, 2899, 2898, 4538, 4539, 4580, 4579
2749, 2858, 2859, 2900, 2899, 4539, 4540, 4581, 4580
2750, 2859, 2860, 2901, 2900, 4540, 4541, 4582, 4581
2751, 2860, 2861, 2902, 2901, 4541, 4542, 4583, 4582
2752, 2861, 2862, 2903, 2902, 4542, 4543, 4584, 4583
2753, 2862, 2863, 2904, 2903, 4543, 4544, 4585, 4584
2754, 2863, 2864, 2905, 2904, 4544, 4545, 4586, 4585
2755, 2864, 2865, 2906, 2905, 4545, 4546, 4587, 4586
2756, 2865, 2866, 2907, 2906, 4546, 4547, 4588, 4587
2757, 2866, 2867, 2908, 2907, 4547, 4548, 4589, 4588
2758, 2867, 2868, 2909, 2908, 4548, 4549, 4590, 4589
2759, 2868, 2869, 2910, 2909, 4549, 4550, 4591, 4590
2760, 2869, 2870, 2911, 2910, 4550, 4551, 4592, 4591
2761, 2871, 2872, 2913, 2912, 4552, 4553, 4594, 4593
2762, 2872, 2873, 2914, 2913, 4553, 4554, 4595, 4594
2763, 2873, 2874, 2915, 2914, 4554, 4555, 4596, 4595
2764, 2874, 2875, 2916, 2915, 4555, 4556, 4597, 4596
2765, 2875, 2876, 2917, 2916, 4556, 4557, 4598, 4597
2766, 2876, 2877, 2918, 2917, 4557, 4558, 4599, 4598
2767, 2877, 2878, 2919, 2918, 4558, 4559, 4600, 4599
2768, 2878, 2879, 2920, 2919, 4559, 4560, 4601, 4600
2769, 2879, 2880, 2921, 2920, 4560, 4561, 4602, 4601
2770, 2880, 2881, 2922, 2921, 4561, 4562, 4603, 4602
2771, 2881, 2882, 2923, 2922, 4562, 4563, 4604, 4603
2772, 2882, 2883, 2924, 2923, 4563, 4564, 4605, 4604
2773, 2883, 2884, 2925, 2924, 4564, 4565, 4606, 4605
2774, 2884, 2885, 2926, 2925, 4565, 4566, 4607, 4606
2775, 2885, 2886, 2927, 2926, 4566, 4567, 4608, 4607
2776, 2886, 2887, 2928, 2927, 4567, 4568, 4609, 4608
2777, 2887, 2888, 2929, 2928, 4568, 4569, 4610, 4609
2778, 2888, 2889, 2930, 2929, 4569, 4570, 4611, 4610
2779, 2889, 2890, 2931, 2930, 4570, 4571, 4612, 4611
2780, 2890, 2891, 2932, 2931, 4571, 4572, 4613, 4612
2781, 2891, 2892, 2933, 2932, 4572, 4573, 4614, 4613
2782, 2892, 2893, 2934, 2933, 4573, 4574, 4615, 4614
2783, 2893, 2894, 2935, 2934, 4574, 4575, 4616, 4615
2784, 2894, 2895, 2936, 2935, 4575, 4576, 4617, 4616
2785, 2895, 2896, 2937, 2936, 4576, 4577, 4618, 4617
2786, 2896, 2897, 2938, 2937, 4577, 4578, 4619, 4618
2787, 2897, 2898, 2939, 2938, 4578, 4579, 4620, 4619
2788, 2898, 2899, 2940, 2939, 4579, 4580, 4621, 4620
2789, 2899, 2900, 2941, 2940, 4580, 4581, 4622, 4621
2790, 2900, 2901, 2942, 2941, 4581, 4582, 4623, 4622
2791, 2901, 2902, 2943, 2942, 4582, 4583, 4624, 4623
2792, 2902, 2903, 2944, 2943, 4583, 4584, 4625, 4624
2793, 2903, 2904, 2945, 2944, 4584, 4585, 4626, 4625
2794, 2904, 2905, 2946, 2945, 4585, 4586, 4627, 4626
2795, 2905, 2906, 2947, 2946, 4586, 4587, 4628, 4627
2796, 2906, 2907, 2948, 2947, 4587, 4588, 4629, 4628
2797, 2907, 2908, 2949, 2948, 4588, 4589, 4630, 4629
2798, 2908, 2909, 2950, 2949, 4589, 4590, 4631, 4630
2799, 2909, 2910, 2951, 2950, 4590, 4591, 4632, 4631
2800, 2910, 2911, 2952, 2951, 4591, 4592, 4633, 4632
2801, 2912, 2913, 2954, 2953, 4593, 4594, 4635, 4634
2802, 2913, 2914, 2955, 2954, 4594, 4595, 4636, 4635
2803, 2914, 2915, 2956, 2955, 4595, 4596, 4637, 4636
2804, 2915, 2916, 2957, 2956, 4596, 4597, 4638, 4637
2805, 2916, 2917, 2958, 2957, 4597, 4598, 4639, 4638
2806, 2917, 2918, 2959, 2958, 4598, 4599, 4640, 4639
2807, 2918, 2919, 2960, 2959, 4599, 4600, 4641, 4640
2808, 2919, 2920, 2961, 2960, 4600, 4601, 4642, 4641
2809, 2920, 2921, 2962, 2961, 4601, 4602, 4643, 4642
2810, 2921, 2922, 2963, 2962, 4602, 4603, 4644, 4643
2811, 2922, 2923, 2964, 2963, 4603, 4604, 4645, 4644
2812, 2923, 2924, 2965, 2964, 4604, 4605, 4646, 4645
2813, 2924, 2925, 2966, 2965, 4605, 4606, 4647, 4646
2814, 2925, 2926, 2967, 2966, 4606, 4607, 4648, 4647
2815, 2926, 2927, 2968, 2967, 4607, 4608, 4649, 4648
2816, 2927, 2928, 2969, 2968, 4608, 4609, 4650, 4649
2817, 2928, 2929, 2970, 2969, 4609, 4610, 4651, 4650
2818, 2929, 2930, 2971, 2970, 4610, 4611, 4652, 4651
2819, 2930, 2931, 2972, 2971, 4611, 4612, 4653, 4652
2820, 2931, 2932, 2973, 2972, 4612, 4613, 4654, 4653
2821, 2932, 2933, 2974, 2973, 4613, 4614, 4655, 4654
2822, 2933, 2934, 2975, 2974, 4614, 4615, 4656, 4655
2823, 2934, 2935, 2976, 2975, 4615, 4616, 4657, 4656
2824, 2935, 2936, 2977, 2976, 4616, 4617, 4658, 4657
2825, 2936, 2937, 2978, 2977, 4617, 4618, 4659, 4658
2826, 2937, 2938, 2979, 2978, 4618, 4619, 4660, 4659
2827, 2938, 2939, 2980, 2979, 4619, 4620, 4661, 4660
2828, 2939, 2940, 2981, 2980, 4620, 4621, 4662, 4661
2829, 2940, 2941, 2982, 2981, 4621, 4622, 4663, 4662
2830, 2941, 2942, 2983, 2982, 4622, 4623, 4664, 4663
2831, 2942, 2943, 2984, 2983, 4623, 4624, 4665, 4664
2832, 2943, 2944, 2985, 2984, 4624, 4625, 4666, 4665
2833, 2944, 2945, 2986, 2985, 4625, 4626, 4667, 4666
2834, 2945, 2946, 2987, 2986, 4626, 4627, 4668, 4667
2835, 2946, 2947, 2988, 2987, 4627, 4628, 4669, 4668
2836, 2947, 2948, 2989, 2988, 4628, 4629, 4670, 4669
2837, 2948, 2949, 2990, 2989, 4629, 4630, 4671, 4670
2838, 2949, 2950, 2991, 2990, 4630, 4631, 4672, 4671
2839, 2950, 2951, 2992, 2991, 4631, 4632, 4673, 4672
2840, 2951, 2952, 2993, 2992, 4632, 4633, 4674, 4673
2841, 2953, 2954, 2995, 2994, 4634, 4635, 4676, 4675
2842, 2954, 2955, 2996, 2995, 4635, 4636, 4677, 4676
2843, 2955, 2956, 2997, 2996, 4636, 4637, 4678, 4677
2844, 2956, 2957, 2998, 2997, 4637, 4638, 4679, 4678
2845, 2957, 2958, 2999, 2998, 4638, 4639, 4680, 4679
2846, 2958, 2959, 3000, 2999, 4639, 4640, 4681, 4680
2847, 2959, 2960, 3001, 3000, 4640, 4641, 4682, 4681
2848, 2960, 2961, 3002, 3001, 4641, 4642, 4683, 4682
2849, 2961, 2962, 3003, 3002, 4642, 4643, 4684, 4683
2850, 2962, 2963, 3004, 3003, 4643, 4644, 4685, 4684
2851, 2963, 2964, 3005, 3004, 4644, 4645, 4686, 4685
2852, 2964, 2965, 3006, 3005, 4645, 4646, 4687, 4686
2853, 2965, 2966, 3007, 3006, 4646, 4647, 4688, 4687
2854, 2966, 2967, 3008, 3007, 4647, 4648, 4689, 4688
2855, 2967, 2968, 3009, 3008, 4648, 4649, 4690, 4689
2856, 2968, 2969, 3010, 3009, 4649, 4650, 4691, 4690
2857, 2969, 2970, 3011, 3010, 4650, 4651, 4692, 4691
2858, 2970, 2971, 3012, 3011, 4651, 4652, 4693, 4692
2859, 2971, 2972, 3013, 3012, 4652, 4653, 4694, 4693
2860, 2972, 2973, 3014, 3013, 4653, 4654, 4695, 4694
2861, 2973, 2974, 3015, 3014, 4654, 4655, 4696, 4695
2862, 2974, 2975, 3016, 3015, 4655, 4656, 4697, 4696
2863, 2975, 2976, 3017, 3016, 4656, 4657, 4698, 4697
2864, 2976, 2977, 3018, 3017, 4657, 4658, 4699, 4698
2865, 2977, 2978, 3019, 3018, 4658, 4659, 4700, 4699
2866, 2978, 2979, 3020, 3019, 4659, 4660, 4701, 4700
2867, 2979, 2980, 3021, 3020, 4660, 4661, 4702, 4701
2868, 2980, 2981, 3022, 3021, 4661, 4662, 4703, 4702
2869, 2981, 2982, 3023, 3022, 4662, 4663, 4704, 4703
2870, 2982, 2983, 3024, 3023, 4663, 4664, 4705, 4704
2871, 2983, 2984, 3025, 3024, 4664, 4665, 4706, 4705
2872, 2984, 2985, 3026, 3025, 4665, 4666, 4707, 4706
2873, 2985, 2986, 3027, 3026, 4666, 4667, 4708, 4707
2874, 2986, 2987, 3028, 3027, 4667, 4668, 4709, 4708
2875, 2987, 2988, 3029, 3028, 4668, 4669, 4710, 4709
2876, 2988, 2989, 3030, 3029, 4669, 4670, 4711, 4710
2877, 2989, 2990, 3031, 3030, 4670, 4671, 4712, 4711
2878, 2990, 2991, 3032, 3031, 4671, 4672, 4713, 4712
2879, 2991, 2992, 3033, 3032, 4672, 4673, 4714, 4713
2880, 2992, 2993, 3034, 3033, 4673, 4674, 4715, 4714
2881, 2994, 2995, 3036, 3035, 4675, 4676, 4717, 4716
2882, 2995, 2996, 3037, 3036, 4676, 4677, 4718, 4717
2883, 2996, 2997, 3038, 3037, 4677, 4678, 4719, 4718
2884, 2997, 2998, 3039, 3038, 4678, 4679, 4720, 4719
2885, 2998, 2999, 3040, 3039, 4679, 4680, 4721, 4720
2886, 2999, 3000, 3041, 3040, 4680, 4681, 4722, 4721
2887, 3000, 3001, 3042, 3041, 4681, 4682, 4723, 4722
2888, 3001, 3002, 3043, 3042, 4682, 4683, 4724, 4723
2889, 3002, 3003, 3044, 3043, 4683, 4684, 4725, 4724
2890, 3003, 3004, 3045, 3044, 4684, 4685, 4726, 4725
2891, 3004, 3005, 3046, 3045, 4685, 4686, 4727, 4726
2892, 3005, 3006, 3047, 3046, 4686, 4687, 4728, 4727
2893, 3006, 3007, 3048, 3047, 4687, 4688, 4729, 4728
2894, 3007, 3008, 3049, 3048, 4688, 4689, 4730, 4729
2895, 3008, 3009, 3050, 3049, 4689, 4690, 4731, 4730
2896, 3009, 3010, 3051, 3050, 4690, 4691, 4732, 4731
2897, 3010, 3011, 3052, 3051, 4691, 4692, 4733, 4732
2898, 3011, 3012, 3053, 3052, 4692, 4693, 4734, 4733
2899, 3012, 3013, 3054, 3053, 4693, 4694, 4735, 4734
2900, 3013, 3014, 3055, 3054, 4694, 4695, 4736, 4735
2901, 3014, 3015, 3056, 3055, 4695, 4696, 4737, 4736
2902, 3015, 3016, 3057, 3056, 4696, 4697, 4738, 4737
2903, 3016, 3017, 3058, 3057, 4697, 4698, 4739, 4738
2904, 3017, 3018, 3059, 3058, 4698, 4699, 4740, 4739
2905, 3018, 3019, 3060, 3059, 4699, 4700, 4741, 4740
2906, 3019, 3020, 3061, 3060, 4700, 4701, 4742, 4741
2907, 3020, 3021, 3062, 3061, 4701, 4702, 4743, 4742
2908, 3021, 3022, 3063, 3062, 4702, 4703, 4744, 4743
2909, 3022, 3023, 3064, 3063, 4703, 4704, 4745, 4744
2910, 3023, 3024, 3065, 3064, 4704, 4705, 4746, 4745
2911, 3024, 3025, 3066, 3065, 4705, 4706, 4747, 4746
2912, 3025, 3026, 3067, 3066, 4706, 4707, 4748, 4747
2913, 3026, 3027, 3068, 3067, 4707, 4708, 4749, 4748
2914, 3027, 3028, 3069, 3068, 4708, 4709, 4750, 4749
2915, 3028, 3029, 3070, 3069, 4709, 4710, 4751, 4750
2916, 3029, 3030, 3071, 3070, 4710, 4711, 4752, 4751
2917, 3030, 3031, 3072, 3071, 4711, 4712, 4753, 4752
2918, 3031, 3032, 3073, 3072, 4712, 4713, 4754, 4753
2919, 3032, 3033, 3074, 3073, 4713, 4714, 4755, 4754
2920, 3033, 3034, 3075, 3074, 4714, 4715, 4756, 4755
2921, 3035, 3036, 3077, 3076, 4716, 4717, 4758, 4757
2922, 3036, 3037, 3078, 3077, 4717, 4718, 4759, 4758
2923, 3037, 3038, 3079, 3078, 4718, 4719, 4760, 4759
2924, 3038, 3039, 3080, 3079, 4719, 4720, 4761, 4760
2925, 3039, 3040, 3081, 3080, 4720, 4721, 4762, 4761
2926, 3040, 3041, 3082, 3081, 4721, 4722, 4763, 4762
2927, 3041, 3042, 3083, 3082, 4722, 4723, 4764, 4763
2928, 3042, 3043, 3084, 3083, 4723, 4724, 4765, 4764
2929, 3043, 3044, 3085, 3084, 4724, 4725, 4766, 4765
2930, 3044, 3045, 3086, 3085, 4725, 4726, 4767, 4766
2931, 3045, 3046, 3087, 3086, 4726, 4727, 4768, 4767
2932, 3046, 3047, 3088, 3087, 4727, 4728, 4769, 4768
2933, 3047, 3048, 3089, 3088, 4728, 4729, 4770, 4769
2934, 3048, 3049, 3090, 3089, 4729, 4730, 4771, 4770
2935, 3049, 3050, 3091, 3090, 4730, 4731, 4772, 4771
2936, 3050, 3051, 3092, 3091, 4731, 4732, 4773, 4772
2937, 3051, 3052, 3093, 3092, 4732, 4733, 4774, 4773
2938, 3052, 3053, 3094, 3093, 4733, 4734, 4775, 4774
2939, 3053, 3054, 3095, 3094, 4734, 4735, 4776, 4775
2940, 3054, 3055, 3096, 3095, 4735, 4736, 4777, 4776
2941, 3055, 3056, 3097, 3096, 4736, 4737, 4778, 4777
2942, 3056, 3057, 3098, 3097, 4737, 4738, 4779, 4778
2943, 3057, 3058, 3099, 3098, 4738, 4739, 4780, 4779
2944, 3058, 3059, 3100, 3099, 4739, 4740, 4781, 4780
2945, 3059, 3060, 3101, 3100, 4740, 4741, 4782, 4781
2946, 3060, 3061, 3102, 3101, 4741, 4742, 4783, 4782
2947, 3061, 3062, 3103, 3102, 4742, 4743, 4784, 4783
2948, 3062, 3063, 3104, 3103, 4743, 4744, 4785, 4784
2949, 3063, 3064, 3105, 3104, 4744, 4745, 4786, 4785
2950, 3064, 3065, 3106, 3105, 4745, 4746, 4787, 4786
2951, 3065, 3066, 3107, 3106, 4746, 4747, 4788, 4787
2952, 3066, 3067, 3108, 3107, 4747, 4748, 4789, 4788
2953, 3067, 3068, 3109, 3108, 4748, 4749, 4790, 4789
2954, 3068, 3069, 3110, 3109, 4749, 4750, 4791, 4790
2955, 3069, 3070, 3111, 3110, 4750, 4751, 4792, 4791
2956, 3070, 3071, 3112, 3111, 4751, 4752, 4793, 4792
2957, 3071, 3072, 3113, 3112, 4752, 4753, 4794, 4793
2958, 3072, 3073, 3114, 3113, 4753, 4754, 4795, 4794
2959, 3073, 3074, 3115, 3114, 4754, 4755, 4796, 4795
2960, 3074, 3075, 3116, 3115, 4755, 4756, 4797, 4796
2961, 3076, 3077, 3118, 3117, 4757, 4758, 4799, 4798
2962, 3077, 3078, 3119, 3118, 4758, 4759, 4800, 4799
2963, 3078, 3079, 3120, 3119, 4759, 4760, 4801, 4800
2964, 3079, 3080, 3121, 3120, 4760, 4761, 4802, 4801
2965, 3080, 3081, 3122, 3121, 4761, 4762, 4803, 4802
2966, 3081, 3082, 3123, 3122, 4762, 4763, 4804, 4803
2967, 3082, 3083, 3124, 3123, 4763, 4764, 4805, 4804
2968, 3083, 3084, 3125, 3124, 4764, 4765, 4806, 4805
2969, 3084, 3085, 3126, 3125, 4765, 4766, 4807, 4806
2970, 3085, 3086, 3127, 3126, 4766, 4767, 4808, 4807
2971, 3086, 3087, 3128, 3127, 4767, 4768, 4809, 4808
2972, 3087, 3088, 3129, 3128, 4768, 4769, 4810, 4809
2973, 3088, 3089, 3130, 3129, 4769, 4770, 4811, 4810
2974, 3089, 3090, 3131, 3130, 4770, 4771, 4812, 4811
2975, 3090, 3091, 3132, 3131, 4771, 4772, 4813, 4812
2976, 3091, 3092, 3133, 3132, 4772, 4773, 4814, 4813
2977, 3092, 3093, 3134, 3133, 4773, 4774, 4815, 4814
2978, 3093, 3094, 3135, 3134, 4774, 4775, 4816, 4815
2979, 3094, 3095, 3136, 3135, 4775, 4776, 4817, 4816
2980, 3095, 3096, 3137, 3136, 4776, 4777, 4818, 4817
2981, 3096, 3097, 3138, 3137, 4777, 4778, 4819, 4818
2982, 3097, 3098, 3139, 3138, 4778, 4779, 4820, 4819
2983, 3098, 3099, 3140, 3139, 4779, 4780, 4821, 4820
2984, 3099, 3100, 3141, 3140, 4780, 4781, 4822, 4821
2985, 3100, 3101, 3142, 3141, 4781, 4782, 4823, 4822
2986, 3101, 3102, 3143, 3142, 4782, 4783, 4824, 4823
2987, 3102, 3103, 3144, 3143, 4783, 4784, 4825, 4824
2988, 3103, 3104, 3145, 3144, 4784, 4785, 4826, 4825
2989, 3104, 3105, 3146, 3145, 4785, 4786, 4827, 4826
2990, 3105, 3106, 3147, 3146, 4786, 4787, 4828, 4827
2991, 3106, 3107, 3148, 3147, 4787, 4788, 4829, 4828
2992, 3107, 3108, 3149, 3148, 4788, 4789, 4830, 4829
2993, 3108, 3109, 3150, 3149, 4789, 4790, 4831, 4830
2994, 3109, 3110, 3151, 3150, 4790, 4791, 4832, 4831
2995, 3110, 3111, 3152, 3151, 4791, 4792, 4833, 4832
2996, 3111, 3112, 3153, 3152, 4792, 4793, 4834, 4833
2997, 3112, 3113, 3154, 3153, 4793, 4794, 4835, 4834
2998, 3113, 3114, 3155, 3154, 4794, 4795, 4836, 4835
2999, 3114, 3115, 3156, 3155, 4795, 4796, 4837, 4836
3000, 3115, 3116, 3157, 3156, 4796, 4797, 4838, 4837
3001, 3117, 3118, 3159, 3158, 4798, 4799, 4840, 4839
3002, 3118, 3119, 3160, 3159, 4799, 4800, 4841, 4840
3003, 3119, 3120, 3161, 3160, 4800, 4801, 4842, 4841
3004, 3120, 3121, 3162, 3161, 4801, 4802, 4843, 4842
3005, 3121, 3122, 3163, 3162, 4802, 4803, 4844, 4843
3006, 3122, 3123, 3164, 3163, 4803, 4804, 4845, 4844
3007, 3123, 3124, 3165, 3164, 4804, 4805, 4846, 4845
3008, 3124, 3125, 3166, 3165, 4805, 4806, 4847, 4846
3009, 3125, 3126, 3167, 3166, 4806, 4807, 4848, 4847
3010, 3126, 3127, 3168, 3167, 4807, 4808, 4849, 4848
3011, 3127, 3128, 3169, 3168, 4808, 4809, 4850, 4849
3012, 3128, 3129, 3170, 3169, 4809, 4810, 4851, 4850
3013, 3129, 3130, 3171, 3170, 4810, 4811, 4852, 4851
3014, 3130, 3131, 3172, 3171, 4811, 4812, 4853, 4852
3015, 3131, 3132, 3173, 3172, 4812, 4813, 4854, 4853
3016, 3132, 3133, 3174, 3173, 4813, 4814, 4855, 4854
3017, 3133, 3134, 3175, 3174, 4814, 4815, 4856, 4855
3018, 3134, 3135, 3176, 3175, 4815, 4816, 4857, 4856
3019, 3135, 3136, 3177, 3176, 4816, 4817, 4858, 4857
3020, 3136, 3137, 3178, 3177, 4817, 4818, 4859, 4858
3021, 3137, 3138, 3179, 3178, 4818, 4819, 4860, 4859
3022, 3138, 3139, 3180, 3179, 4819, 4820, 4861, 4860
3023, 3139, 3140, 3181, 3180, 4820, 4821, 4862, 4861
3024, 3140, 3141, 3182, 3181, 4821, 4822, 4863, 4862
3025, 3141, 3142, 3183, 3182, 4822, 4823, 4864, 4863
3026, 3142, 3143, 3184, 3183, 4823, 4824, 4865, 4864
3027, 3143, 3144, 3185, 3184, 4824, 4825, 4866, 4865
3028, 3144, 3145, 3186, 3185, 4825, 4826, 4867, 4866
3029, 3145, 3146, 3187, 3186, 4826, 4827, 4868, 4867
3030, 3146, 3147, 3188, 3187, 4827, 4828, 4869, 4868
3031, 3147, 3148, 3189, 3188, 4828, 4829, 4870, 4869
3032, 3148, 3149, 3190, 3189, 4829, 4830, 4871, 4870
3033, 3149, 3150, 3191, 3190, 4830, 4831, 4872, 4871
3034, 3150, 3151, 3192, 3191, 4831, 4832, 4873, 4872
3035, 3151, 3152, 3193, 3192, 4832, 4833, 4874, 4873
3036, 3152, 3153, 3194, 3193, 4833, 4834, 4875, 4874
3037, 3153, 3154, 3195, 3194, 4834, 4835, 4876, 4875
3038, 3154, 3155, 3196, 3195, 4835, 4836, 4877, 4876
3039, 3155, 3156, 3197, 3196, 4836, 4837, 4878, 4877
3040, 3156, 3157, 3198, 3197, 4837, 4838, 4879, 4878
3041, 3158, 3159, 3200, 3199, 4839, 4840, 4881, 4880
3042, 3159, 3160, 3201, 3200, 4840, 4841, 4882, 4881
3043, 3160, 3161, 3202, 3201, 4841, 4842, 4883, 4882
3044, 3161, 3162, 3203, 3202, 4842, 4843, 4884, 4883
3045, 3162, 3163, 3204, 3203, 4843, 4844, 4885, 4884
3046, 3163, 3164, 3205, 3204, 4844, 4845, 4886, 4885
3047, 3164, 3165, 3206, 3205, 4845, 4846, 4887, 4886
3048, 3165, 3166, 3207, 3206, 4846, 4847, 4888, 4887
3049, 3166, 3167, 3208, 3207, 4847, 4848, 4889, 4888
3050, 3167, 3168, 3209, 3208, 4848, 4849, 4890, 4889
3051, 3168, 3169, 3210, 3209, 4849, 4850, 4891, 4890
3052, 3169, 3170, 3211, 3210, 4850, 4851, 4892, 4891
3053, 3170, 3171, 3212, 3211, 4851, 4852, 4893, 4892
3054, 3171, 3172, 3213, 3212, 4852, 4853, 4894, 4893
3055, 3172, 3173, 3214, 3213, 4853, 4854, 4895, 4894
3056, 3173, 3174, 3215, 3214, 4854, 4855, 4896, 4895
3057, 3174, 3175, 3216, 3215, 4855, 4856, 4897, 4896
3058, 3175, 3176, 3217, 3216, 4856, 4857, 4898, 4897
3059, 3176, 3177, 3218, 3217, 4857, 4858, 4899, 4898
3060, 3177, 3178, 3219, 3218, 4858, 4859, 4900, 4899
3061, 3178, 3179, 3220, 3219, 4859, 4860, 4901, 4900
3062, 3179, 3180, 3221, 3220, 4860, 4861, 4902, 4901
3063, 3180, 3181, 3222, 3221, 4861, 4862, 4903, 4902
3064, 3181, 3182, 3223, 3222, 4862, 4863, 4904, 4903
3065, 3182, 3183, 3224, 3223, 4863, 4864, 4905, 4904
3066, 3183, 3184, 3225, 3224, 4864, 4865, 4906, 4905
3067, 3184, 3185, 3226, 3225, 4865, 4866, 4907, 4906
3068, 3185, 3186, 3227, 3226, 4866, 4867, 4908, 4907
3069, 3186, 3187, 3228, 3227, 4867, 4868, 4909, 4908
3070, 3187, 3188, 3229, 3228, 4868, 4869, 4910, 4909
3071, 3188, 3189, 3230, 3229, 4869, 4870, 4911, 4910
3072, 3189, 3190, 3231, 3230, 4870, 4871, 4912, 4911
3073, 3190, 3191, 3232, 3231, 4871, 4872, 4913, 4912
3074, 3191, 3192, 3233, 3232, 4872, 4873, 4914, 4913
3075, 3192, 3193, 3234, 3233, 4873, 4874, 4915, 4914
3076, 3193, 3194, 3235, 3234, 4874, 4875, 4916, 4915
3077, 3194, 3195, 3236, 3235, 4875, 4876, 4917, 4916
3078, 3195, 3196, 3237, 3236, 4876, 4877, 4918, 4917
3079, 3196, 3197, 3238, 3237, 4877, 4878, 4919, 4918
3080, 3197, 3198, 3239, 3238, 4878, 4879, 4920, 4919
3081, 3199, 3200, 3241, 3240, 4880, 4881, 4922, 4921
3082, 3200, 3201, 3242, 3241, 4881, 4882, 4923, 4922
3083, 3201, 3202, 3243, 3242, 4882, 4883, 4924, 4923
3084, 3202, 3203, 3244, 3243, 4883, 4884, 4925, 4924
3085, 3203, 3204, 3245, 3244, 4884, 4885, 4926, 4925
3086, 3204, 3205, 3246, 3245, 4885, 4886, 4927, 4926
3087, 3205, 3206, 3247, 3246, 4886, 4887, 4928, 4927
3088, 3206, 3207, 3248, 3247, 4887, 4888, 4929, 4928
3089, 3207, 3208, 3249, 3248, 4888, 4889, 4930, 4929
3090, 3208, 3209, 3250, 3249, 4889, 4890, 4931, 4930
3091, 3209, 3210, 3251, 3250, 4890, 4891, 4932, 4931
3092, 3210, 3211, 3252, 3251, 4891, 4892, 4933, 4932
3093, 3211, 3212, 3253, 3252, 4892, 4893, 4934, 4933
3094, 3212, 3213, 3254, 3253, 4893, 4894, 4935, 4934
3095, 3213, 3214, 3255, 3254, 4894, 4895, 4936, 4935
3096, 3214, 3215, 3256, 3255, 4895, 4896, 4937, 4936
3097, 3215, 3216, 3257, 3256, 4896, 4897, 4938, 4937
3098, 3216, 3217, 3258, 3257, 4897, 4898, 4939, 4938
3099, 3217, 3218, 3259, 3258, 4898, 4899, 4940, 4939
3100, 3218, 3219, 3260, 3259, 4899, 4900, 4941, 4940
3101, 3219, 3220, 3261, 3260, 4900, 4901, 4942, 4941
3102, 3220, 3221, 3262, 3261, 4901, 4902, 4943, 4942
3103, 3221, 3222, 3263, 3262, 4902, 4903, 4944, 4943
3104, 3222, 3223, 3264, 3263, 4903, 4904, 4945, 4944
3105, 3223, 3224, 3265, 3264, 4904, 4905, 4946, 4945
3106, 3224, 3225, 3266, 3265, 4905, 4906, 4947, 4946
3107, 3225, 3226, 3267, 3266, 4906, 4907, 4948, 4947
3108, 3226, 3227, 3268, 3267, 4907, 4908, 4949, 4948
3109, 3227, 3228, 3269, 3268, 4908, 4909, 4950, 4949
3110, 3228, 3229, 3270, 3269, 4909, 4910, 4951, 4950
3111, 3229, 3230, 3271, 3270, 4910, 4911, 4952, 4951
3112, 3230, 3231, 3272, 3271, 4911, 4912, 4953, 4952
3113, 3231, 3232, 3273, 3272, 4912, 4913, 4954, 4953
3114, 3232, 3233, 3274, 3273, 4913, 4914, 4955, 4954
3115, 3233, 3234, 3275, 3274, 4914, 4915, 4956, 4955
3116, 3234, 3235, 3276, 3275, 4915, 4916, 4957, 4956
3117, 3235, 3236, 3277, 3276, 4916, 4917, 4958, 4957
3118, 3236, 3237, 3278, 3277, 4917, 4918, 4959, 4958
3119, 3237, 3238, 3279, 3278, 4918, 4919, 4960, 4959
3120, 3238, 3239, 3280, 3279, 4919, 4920, 4961, 4960
3121, 3240, 3241, 3282, 3281, 4921, 4922, 4963, 4962
3122, 3241, 3242, 3283, 3282, 4922, 4923, 4964, 4963
3123, 3242, 3243, 3284, 3283, 4923, 4924, 4965, 4964
3124, 3243, 3244, 3285, 3284, 4924, 4925, 4966, 4965
3125, 3244, 3245, 3286, 3285, 4925, 4926, 4967, 4966
3126, 3245, 3246, 3287, 3286, 4926, 4927, 4968, 4967
3127, 3246, 3247, 3288, 3287, 4927, 4928, 4969, 4968
3128, 3247, 3248, 3289, 3288, 4928, 4929, 4970, 4969
3129, 3248, 3249, 3290, 3289, 4929, 4930, 4971, 4970
3130, 3249, 3250, 3291, 3290, 4930, 4931, 4972, 4971
3131, 3250, 3251, 3292, 3291, 4931, 4932, 4973, 4972
3132, 3251, 3252, 3293, 3292, 4932, 4933, 4974, 4973
3133, 3252, 3253, 3294, 3293, 4933, 4934, 4975, 4974
3134, 3253, 3254, 3295, 3294, 4934, 4935, 4976, 4975
3135, 3254, 3255, 3296, 3295, 4935, 4936, 4977, 4976
3136, 3255, 3256, 3297, 3296, 4936, 4937, 4978, 4977
3137, 3256, 3257, 3298, 3297, 4937, 4938, 4979, 4978
3138, 3257, 3258, 3299, 3298, 4938, 4939, 4980, 4979
3139, 3258, 3259, 3300, 3299, 4939, 4940, 4981, 4980
3140, 3259, 3260, 3301, 3300, 4940, 4941, 4982, 4981
3141, 3260, 3261, 3302, 3301, 4941, 4942, 4983, 4982
3142, 3261, 3262, 3303, 3302, 4942, 4943, 4984, 4983
3143, 3262, 3263, 3304, 3303, 4943, 4944, 4985, 4984
3144, 3263, 3264, 3305, 3304, 4944, 4945, 4986, 4985
3145, 3264, 3265, 3306, 3305, 4945, 4946, 4987, 4986
3146, 3265, 3266, 3307, 3306, 4946, 4947, 4988, 4987
3147, 3266, 3267, 3308, 3307, 4947, 4948, 4989, 4988
3148, 3267, 3268, 3309, 3308, 4948, 4949, 4990, 4989
3149, 3268, 3269, 3310, 3309, 4949, 4950, 4991, 4990
3150, 3269, 3270, 3311, 3310, 4950, 4951, 4992, 4991
3151, 3270, 3271, 3312, 3311, 4951, 4952, 4993, 4992
3152, 3271, 3272, 3313, 3312, 4952, 4953, 4994, 4993
3153, 3272, 3273, 3314, 3313, 4953, 4954, 4995, 4994
3154, 3273, 3274, 3315, 3314, 4954, 4955, 4996, 4995
3155, 3274, 3275, 3316, 3315, 4955, 4956, 4997, 4996
3156, 3275, 3276, 3317, 3316, 4956, 4957, 4998, 4997
3157, 3276, 3277, 3318, 3317, 4957, 4958, 4999, 4998
3158, 3277, 3278, 3319, 3318, 4958, 4959, 5000, 4999
3159, 3278, 3279, 3320, 3319, 4959, 4960, 5001, 5000
3160, 3279, 3280, 3321, 3320, 4960, 4961, 5002, 5001
3161, 3281, 3282, 3323, 3322, 4962, 4963, 5004, 5003
3162, 3282, 3283, 3324, 3323, 4963, 4964, 5005, 5004
3163, 3283, 3284, 3325, 3324, 4964, 4965, 5006, 5005
3164, 3284, 3285, 3326, 3325, 4965, 4966, 5007, 5006
3165, 3285, 3286, 3327, 3326, 4966, 4967, 5008, 5007
3166, 3286, 3287, 3328, 3327, 4967, 4968, 5009, 5008
3167, 3287, 3288, 3329, 3328, 4968, 4969, 5010, 5009
3168, 3288, 3289, 3330, 3329, 4969, 4970, 5011, 5010
3169, 3289, 3290, 3331, 3330, 4970, 4971, 5012, 5011
3170, 3290, 3291, 3332, 3331, 4971, 4972, 5013, 5012
3171, 3291, 3292, 3333, 3332, 4972, 4973, 5014, 5013
3172, 3292, 3293, 3334, 3333, 4973, 4974, 5015, 5014
3173, 3293, 3294, 3335, 3334, 4974, 4975, 5016, 5015
3174, 3294, 3295, 3336, 3335, 4975, 4976, 5017, 5016
3175, 3295, 3296, 3337, 3336, 4976, 4977, 5018, 5017
3176, 3296, 3297, 3338, 3337, 4977, 4978, 5019, 5018
3177, 3297, 3298, 3339, 3338, 4978, 4979, 5020, 5019
3178, 3298, 3299, 3340, 3339, 4979, 4980, 5021, 5020
3179, 3299, 3300, 3341, 3340, 4980, 4981, 5022, 5021
3180, 3300, 3301, 3342, 3341, 4981, 4982, 5023, 5022
3181, 3301, 3302, 3343, 3342, 4982, 4983, 5024, 5023
3182, 3302, 3303, 3344, 3343, 4983, 4984, 5025, 5024
3183, 3303, 3304, 3345, 3344, 4984, 4985, 5026, 5025
3184, 3304, 3305, 3346, 3345, 4985, 4986, 5027, 5026
3185, 3305, 3306, 3347, 3346, 4986, 4987, 5028, 5027
3186, 3306, 3307, 3348, 3347, 4987, 4988, 5029, 5028
3187, 3307, 3308, 3349, 3348, 4988, 4989, 5030, 5029
3188, 3308, 3309, 3350, 3349, 4989, 4990, 5031, 5030
3189, 3309, 3310, 3351, 3350, 4990, 4991, 5032, 5031
3190, 3310, 3311, 3352, 3351, 4991, 4992, 5033, 5032
3191, 3311, 3312, 3353, 3352, 4992, 4993, 5034, 5033
3192, 3312, 3313, 3354, 3353, 4993, 4994, 5035, 5034
3193, 3313, 3314, 3355, 3354, 4994, 4995, 5036, 5035
3194, 3314, 3315, 3356, 3355, 4995, 4996, 5037, 5036
3195, 3315, 3316, 3357, 3356, 4996, 4997, 5038, 5037
3196, 3316, 3317, 3358, 3357, 4997, 4998, 5039, 5038
3197, 3317, 3318, 3359, 3358, 4998, 4999, 5040, 5039
3198, 3318, 3319, 3360, 3359, 4999, 5000, 5041, 5040
3199, 3319, 3320, 3361, 3360, 5000, 5001, 5042, 5041
3200, 3320, 3321, 3362, 3361, 5001, 5002, 5043, 5042
3201, 3363, 3364, 3405, 3404, 5044, 5045, 5086, 5085
3202, 3364, 3365, 3406, 3405, 5045, 5046, 5087, 5086
3203, 3365, 3366, 3407, 3406, 5046, 5047, 5088, 5087
3204, 3366, 3367, 3408, 3407, 5047, 5048, 5089, 5088
3205, 3367, 3368, 3409, 3408, 5048, 5049, 5090, 5089
3206, 3368, 3369, 3410, 3409, 5049, 5050, 5091, 5090
3207, 3369, 3370, 3411, 3410, 5050, 5051, 5092, 5091
3208, 3370, 3371, 3412, 3411, 5051, 5052, 5093, 5092
3209, 3371, 3372, 3413, 3412, 5052, 5053, 5094, 5093
3210, 3372, 3373, 3414, 3413, 5053, 5054, 5095, 5094
3211, 3373, 3374, 3415, 3414, 5054, 5055, 5096, 5095
3212, 3374, 3375, 3416, 3415, 5055, 5056, 5097, 5096
3213, 3375, 3376, 3417, 3416, 5056, 5057, 5098, 5097
3214, 3376, 3377, 3418, 3417, 5057, 5058, 5099, 5098
3215, 3377, 3378, 3419, 3418, 5058, 5059, 5100, 5099
3216, 3378, 3379, 3420, 3419, 5059, 5060, 5101, 5100
3217, 3379, 3380, 3421, 3420, 5060, 5061, 5102, 5101
3218, 3380, 3381, 3422, 3421, 5061, 5062, 5103, 5102
3219, 3381, 3382, 3423, 3422, 5062, 5063, 5104, 5103
3220, 3382, 3383, 3424, 3423, 5063, 5064, 5105, 5104
3221, 3383, 3384, 3425, 3424, 5064, 5065, 5106, 5105
3222, 3384, 3385, 3426, 3425, 5065, 5066, 5107, 5106
3223, 3385, 3386, 3427, 3426, 5066, 5067, 5108, 5107
3224, 3386, 3387, 3428, 3427, 5067, 5068, 5109, 5108
3225, 3387, 3388, 3429, 3428, 5068, 5069, 5110, 5109
3226, 3388, 3389, 3430, 3429, 5069, 5070, 5111, 5110
3227, 3389, 3390, 3431, 3430, 5070, 5071, 5112, 5111
3228, 3390, 3391, 3432, 3431, 5071, 5072, 5113, 5112
3229, 3391, 3392, 3433, 3432, 5072, 5073, 5114, 5113
3230, 3392, 3393, 3434, 3433, 5073, 5074, 5115, 5114
3231, 3393, 3394, 3435, 3434, 5074, 5075, 5116, 5115
3232, 3394, 3395, 3436, 3435, 5075, 5076, 5117, 5116
3233, 3395, 3396, 3437, 3436, 5076, 5077, 5118, 5117
3234, 3396, 3397, 3438, 3437, 5077, 5078, 5119, 5118
3235, 3397, 3398, 3439, 3438, 5078, 5079, 5120, 5119
3236, 3398, 3399, 3440, 3439, 5079, 5080, 5121, 5120
3237, 3399, 3400, 3441, 3440, 5080, 5081, 5122, 5121
3238, 3400, 3401, 3442, 3441, 5081, 5082, 5123, 5122
3239, 3401, 3402, 3443, 3442, 5082, 5083, 5124, 5123
3240, 3402, 3403, 3444, 3443, 5083, 5084, 5125, 5124
3241, 3404, 3405, 3446, 3445, 5085, 5086, 5127, 5126
3242, 3405, 3406, 3447, 3446, 5086, 5087, 5128, 5127
3243, 3406, 3407, 3448, 3447, 5087, 5088, 5129, 5128
3244, 3407, 3408, 3449, 3448, 5088, 5089, 5130, 5129
3245, 3408, 3409, 3450, 3449, 5089, 5090, 5131, 5130
3246, 3409, 3410, 3451, 3450, 5090, 5091, 5132, 5131
3247, 3410, 3411, 3452, 3451, 5091, 5092, 5133, 5132
3248, 3411, 3412, 3453, 3452, 5092, 5093, 5134, 5133
3249, 3412, 3413, 3454, 3453, 5093, 5094, 5135, 5134
3250, 3413, 3414, 3455, 3454, 5094, 5095, 5136, 5135
3251, 3414, 3415, 3456, 3455, 5095, 5096, 5137, 5136
3252, 3415, 3416, 3457, 3456, 5096, 5097, 5138, 5137
3253, 3416, 3417, 3458, 3457, 5097, 5098, 5139, 5138
3254, 3417, 3418, 3459, 3458, 5098, 5099, 5140, 5139
3255, 3418, 3419, 3460, 3459, 5099, 5100, 5141, 5140
3256, 3419, 3420, 3461, 3460, 5100, 5101, 5142, 5141
3257, 3420, 3421, 3462, 3461, 5101, 5102, 5143, 5142
3258, 3421, 3422, 3463, 3462, 5102, 5103, 5144, 5143
3259, 3422, 3423, 3464, 3463, 5103, 5104, 5145, 5144
3260, 3423, 3424, 3465, 3464, 5104, 5105, 5146, 5145
3261, 3424, 3425, 3466, 3465, 5105, 5106, 5147, 5146
3262, 3425, 3426, 3467, 3466, 5106, 5107, 5148, 5147
3263, 3426, 3427, 3468, 3467, 5107, 5108, 5149, 5148
3264, 3427, 3428, 3469, 3468, 5108, 5109, 5150, 5149
3265, 3428, 3429, 3470, 3469, 5109, 5110, 5151, 5150
3266, 3429, 3430, 3471, 3470, 5110, 5111, 5152, 5151
3267, 3430, 3431, 3472, 3471, 5111, 5112, 5153, 5152
3268, 3431, 3432, 3473, 3472, 5112, 5113, 5154, 5153
3269, 3432, 3433, 3474, 3473, 5113, 5114, 5155, 5154
3270, 3433, 3434, 3475, 3474, 5114, 5115, 5156, 5155
3271, 3434, 3435, 3476, 3475, 5115, 5116, 5157, 5156
3272, 3435, 3436, 3477, 3476, 5116, 5117, 5158, 5157
3273, 3436, 3437, 3478, 3477, 5117, 5118, 5159, 5158
3274, 3437, 3438, 3479, 3478, 5118, 5119, 5160, 5159
3275, 3438, 3439, 3480, 3479, 5119, 5120, 5161, 5160
3276, 3439, 3440, 3481, 3480, 5120, 5121, 5162, 5161
3277, 3440, 3441, 3482, 3481, 5121, 5122, 5163, 5162
3278, 3441, 3442, 3483, 3482, 5122, 5123, 5164, 5163
3279, 3442, 3443, 3484, 3483, 5123, 5124, 5165, 5164
3280, 3443, 3444, 3485, 3484, 5124, 5125, 5166, 5165
3281, 3445, 3446, 3487, 3486, 5126, 5127, 5168, 5167
3282, 3446, 3447, 3488, 3487, 5127, 5128, 5169, 5168
3283, 3447, 3448, 3489, 3488, 5128, 5129, 5170, 5169
3284, 3448, 3449, 3490, 3489, 5129, 5130, 5171, 5170
3285, 3449, 3450, 3491, 3490, 5130, 5131, 5172, 5171
3286, 3450, 3451, 3492, 3491, 5131, 5132, 5173, 5172
3287, 3451, 3452, 3493, 3492, 5132, 5133, 5174, 5173
3288, 3452, 3453, 3494, 3493, 5133, 5134, 5175, 5174
3289, 3453, 3454, 3495, 3494, 5134, 5135, 5176, 5175
3290, 3454, 3455, 3496, 3495, 5135, 5136, 5177, 5176
3291, 3455, 3456, 3497, 3496, 5136, 5137, 5178, 5177
3292, 3456, 3457, 3498, 3497, 5137, 5138, 5179, 5178
3293, 3457, 3458, 3499, 3498, 5138, 5139, 5180, 5179
3294, 3458, 3459, 3500, 3499, 5139, 5140, 5181, 5180
3295, 3459, 3460, 3501, 3500, 5140, 5141, 5182, 5181
3296, 3460, 3461, 3502, 3501, 5141, 5142, 5183, 5182
3297, 3461, 3462, 3503, 3502, 5142, 5143, 5184, 5183
3298, 3462, 3463, 3504, 3503, 5143, 5144, 5185, 5184
3299, 3463, 3464, 3505, 3504, 5144, 5145, 5186, 5185
3300, 3464, 3465, 3506, 3505, 5145, 5146, 5187, 5186
3301, 3465, 3466, 3507, 3506, 5146, 5147, 5188, 5187
3302, 3466, 3467, 3508, 3507, 5147, 5148, 5189, 5188
3303, 3467, 3468, 3509, 3508, 5148, 5149, 5190, 5189
3304, 3468, 3469, 3510, 3509, 5149, 5150, 5191, 5190
3305, 3469, 3470, 3511, 3510, 5150, 5151, 5192, 5191
3306, 3470, 3471, 3512, 3511, 5151, 5152, 5193, 5192
3307, 3471, 3472, 3513, 3512, 5152, 5153, 5194, 5193
3308, 3472, 3473, 3514, 3513, 5153, 5154, 5195, 5194
3309, 3473, 3474, 3515, 3514, 5154, 5155, 5196, 5195
3310, 3474, 3475, 3516, 3515, 5155, 5156, 5197, 5196
3311, 3475, 3476, 3517, 3516, 5156, 5157, 5198, 5197
3312, 3476, 3477, 3518, 3517, 5157, 5158, 5199, 5198
3313, 3477, 3478, 3519, 3518, 5158, 5159, 5200, 5199
3314, 3478, 3479, 3520, 3519, 5159, 5160, 5201, 5200
3315, 3479, 3480, 3521, 3520, 5160, 5161, 5202, 5201
3316, 3480, 3481, 3522, 3521, 5161, 5162, 5203, 5202
3317, 3481, 3482, 3523, 3522, 5162, 5163, 5204, 5203
3318, 3482, 3483, 3524, 3523, 5163, 5164, 5205, 5204
3319, 3483, 3484, 3525, 3524, 5164, 5165, 5206, 5205
3320, 3484, 3485, 3526, 3525, 5165, 5166, 5207, 5206
3321, 3486, 3487, 3528, 3527, 5167, 5168, 5209, 5208
3322, 3487, 3488, 3529, 3528, 5168, 5169, 5210, 5209
3323, 3488, 3489, 3530, 3529, 5169, 5170, 5211, 5210
3324, 3489, 3490, 3531, 3530, 5170, 5171, 5212, 5211
3325, 3490, 3491, 3532, 3531, 5171, 5172, 5213, 5212
3326, 3491, 3492, 3533, 3532, 5172, 5173, 5214, 5213
3327, 3492, 3493, 3534, 3533, 5173, 5174, 5215, 5214
3328, 3493, 3494, 3535, 3534, 5174, 5175, 5216, 5215
3329, 3494, 3495, 3536, 3535, 5175, 5176, 5217, 5216
3330, 3495, 3496, 3537, 3536, 5176, 5177, 5218, 5217
3331, 3496, 3497, 3538, 3537, 5177, 5178, 5219, 5218
3332, 3497, 3498, 3539, 3538, 5178, 5179, 5220, 5219
3333, 3498, 3499, 3540, 3539, 5179, 5180, 5221, 5220
3334, 3499, 3500, 3541, 3540, 5180, 5181, 5222, 5221
3335, 3500, 3501, 3542, 3541, 5181, 5182, 5223, 5222
3336, 3501, 3502, 3543, 3542, 5182, 5183, 5224, 5223
3337, 3502, 3503, 3544, 3543, 5183, 5184, 5225, 5224
3338, 3503, 3504, 3545, 3544, 5184, 5185, 5226, 5225
3339, 3504, 3505, 3546, 3545, 5185, 5186, 5227, 5226
3340, 3505, 3506, 3547, 3546, 5186, 5187, 5228, 5227
3341, 3506, 3507, 3548, 3547, 5187, 5188, 5229, 5228
3342, 3507, 3508, 3549, 3548, 5188, 5189, 5230, 5229
3343, 3508, 3509, 3550, 3549, 5189, 5190, 5231, 5230
3344, 3509, 3510, 3551, 3550, 5190, 5191, 5232, 5231
3345, 3510, 3511, 3552, 3551, 5191, 5192, 5233, 5232
3346, 3511, 3512, 3553, 3552, 5192, 5193, 5234, 5233
3347, 3512, 3513, 3554, 3553, 5193, 5194, 5235, 5234
3348, 3513, 3514, 3555, 3554, 5194, 5195, 5236, 5235
3349, 3514, 3515, 3556, 3555, 5195, 5196, 5237, 5236
3350, 3515, 3516, 3557, 3556, 5196, 5197, 5238, 5237
3351, 3516, 3517, 3558, 3557, 5197, 5198, 5239, 5238
3352, 3517, 3518, 3559, 3558, 5198, 5199, 5240, 5239
3353, 3518, 3519, 3560, 3559, 5199, 5200, 5241, 5240
3354, 3519, 3520, 3561, 3560, 5200, 5201, 5242, 5241
3355, 3520, 3521, 3562, 3561, 5201, 5202, 5243, 5242
3356, 3521, 3522, 3563, 3562, 5202, 5203, 5244, 5243
3357, 3522, 3523, 3564, 3563, 5203, 5204, 5245, 5244
3358, 3523, 3524, 3565, 3564, 5204, 5205, 5246, 5245
3359, 3524, 3525, 3566, 3565, 5205, 5206, 5247, 5246
3360, 3525, 3526, 3567, 3566, 5206, 5207, 5248, 5247
3361, 3527, 3528, 3569, 3568, 5208, 5209, 5250, 5249
3362, 3528, 3529, 3570, 3569, 5209, 5210, 5251, 5250
3363, 3529, 3530, 3571, 3570, 5210, 5211, 5252, 5251
3364, 3530, 3531, 3572, 3571, 5211, 5212, 5253, 5252
3365, 3531, 3532, 3573, 3572, 5212, 5213, 5254, 5253
3366, 3532, 3533, 3574, 3573, 5213, 5214, 5255, 5254
3367, 3533, 3534, 3575, 3574, 5214, 5215, 5256, 5255
3368, 3534, 3535, 3576, 3575, 5215, 5216, 5257, 5256
3369, 3535, 3536, 3577, 3576, 5216, 5217, 5258, 5257
3370, 3536, 3537, 3578, 3577, 5217, 5218, 5259, 5258
3371, 3537, 3538, 3579, 3578, 5218, 5219, 5260, 5259
3372, 3538, 3539, 3580, 3579, 5219, 5220, 5261, 5260
3373, 3539, 3540, 3581, 3580, 5220, 5221, 5262, 5261
3374, 3540, 3541, 3582, 3581, 5221, 5222, 5263, 5262
3375, 3541, 3542, 3583, 3582, 5222, 5223, 5264, 5263
3376, 3542, 3543, 3584, 3583, 5223, 5224, 5265, 5264
3377, 3543, 3544, 3585, 3584, 5224, 5225, 5266, 5265
3378, 3544, 3545, 3586, 3585, 5225, 5226, 5267, 5266
3379, 3545, 3546, 3587, 3586, 5226, 5227, 5268, 5267
3380, 3546, 3547, 3588, 3587, 5227, 5228, 5269, 5268
3381, 3547, 3548, 3589, 3588, 5228, 5229, 5270, 5269
3382, 3548, 3549, 3590, 3589, 5229, 5230, 5271, 5270
3383, 3549, 3550, 3591, 3590, 5230, 5231, 5272, 5271
3384, 3550, 3551, 3592, 3591, 5231, 5232, 5273, 5272
3385, 3551, 3552, 3593, 3592, 5232, 5233, 5274, 5273
3386, 3552, 3553, 3594, 3593, 5233, 5234, 5275, 5274
3387, 3553, 3554, 3595, 3594, 5234, 5235, 5276, 5275
3388, 3554, 3555, 3596, 3595, 5235, 5236, 5277, 5276
3389, 3555, 3556, 3597, 3596, 5236, 5237, 5278, 5277
3390, 3556, 3557, 3598, 3597, 5237, 5238, 5279, 5278
3391, 3557, 3558, 3599, 3598, 5238, 5239, 5280, 5279
3392, 3558, 3559, 3600, 3599, 5239, 5240, 5281, 5280
3393, 3559, 3560, 3601, 3600, 5240, 5241, 5282, 5281
3394, 3560, 3561, 3602, 3601, 5241, 5242, 5283, 5282
3395, 3561, 3562, 3603, 3602, 5242, 5243, 5284, 5283
3396, 3562, 3563, 3604, 3603, 5243, 5244, 5285, 5284
3397, 3563, 3564, 3605, 3604, 5244, 5245, 5286, 5285
3398, 3564, 3565, 3606, 3605, 5245, 5246, 5287, 5286
3399, 3565, 3566, 3607, 3606, 5246, 5247, 5288, 5287
3400, 3566, 3567, 3608, 3607, 5247, 5248, 5289, 5288
3401, 3568, 3569, 3610, 3609, 5249, 5250, 5291, 5290
3402, 3569, 3570, 3611, 3610, 5250, 5251, 5292, 5291
3403, 3570, 3571, 3612, 3611, 5251, 5252, 5293, 5292
3404, 3571, 3572, 3613, 3612, 5252, 5253, 5294, 5293
3405, 3572, 3573, 3614, 3613, 5253, 5254, 5295, 5294
3406, 3573, 3574, 3615, 3614, 5254, 5255, 5296, 5295
3407, 3574, 3575, 3616, 3615, 5255, 5256, 5297, 5296
3408, 3575, 3576, 3617, 3616, 5256, 5257, 5298, 5297
3409, 3576, 3577, 3618, 3617, 5257, 5258, 5299, 5298
3410, 3577, 3578, 3619, 3618, 5258, 5259, 5300, 5299
3411, 3578, 3579, 3620, 3619, 5259, 5260, 5301, 5300
3412, 3579, 3580, 3621, 3620, 5260, 5261, 5302, 5301
3413, 3580, 3581, 3622, 3621, 5261, 5262, 5303, 5302
3414, 3581, 3582, 3623, 3622, 5262, 5263, 5304, 5303
3415, 3582, 3583, 3624, 3623, 5263, 5264, 5305, 5304
3416, 3583, 3584, 3625, 3624, 5264, 5265, 5306, 5305
3417, 3584, 3585, 3626, 3625, 5265, 5266, 5307, 5306
3418, 3585, 3586, 3627, 3626, 5266, 5267, 5308, 5307
3419, 3586, 3587, 3628, 3627, 5267, 5268, 5309, 5308
3420, 3587, 3588, 3629, 3628, 5268, 5269, 5310, 5309
3421, 3588, 3589, 3630, 3629, 5269, 5270, 5311, 5310
3422, 3589, 3590, 3631, 3630, 5270, 5271, 5312, 5311
3423, 3590, 3591, 3632, 3631, 5271, 5272, 5313, 5312
3424, 3591, 3592, 3633, 3632, 5272, 5273, 5314, 5313
3425, 3592, 3593, 3634, 3633, 5273, 5274, 5315, 5314
3426, 3593, 3594, 3635, 3634, 5274, 5275, 5316, 5315
3427, 3594, 3595, 3636, 3635, 5275, 5276, 5317, 5316
3428, 3595, 3596, 3637, 3636, 5276, 5277, 5318, 5317
3429, 3596, 3597, 3638, 3637, 5277, 5278, 5319, 5318
3430, 3597, 3598, 3639, 3638, 5278, 5279, 5320, 5319
3431, 3598, 3599, 3640, 3639, 5279, 5280, 5321, 5320
3432, 3599, 3600, 3641, 3640, 5280, 5281, 5322, 5321
3433, 3600, 3601, 3642, 3641, 5281, 5282, 5323, 5322
3434, 3601, 3602, 3643, 3642, 5282, 5283, 5324, 5323
3435, 3602, 3603, 3644, 3643, 5283, 5284, 5325, 5324
3436, 3603, 3604, 3645, 3644, 5284, 5285, 5326, 5325
3437, 3604, 3605, 3646, 3645, 5285, 5286, 5327, 5326
3438, 3605, 3606, 3647, 3646, 5286, 5287, 5328, 5327
3439, 3606, 3607, 3648, 3647, 5287, 5288, 5329, 5328
3440, 3607, 3608, 3649, 3648, 5288, 5289, 5330, 5329
3441, 3609, 3610, 3651, 3650, 5290, 5291, 5332, 5331
3442, 3610, 3611, 3652, 3651, 5291, 5292, 5333, 5332
3443, 3611, 3612, 3653, 3652, 5292, 5293, 5334, 5333
3444, 3612, 3613, 3654, 3653, 5293, 5294, 5335, 5334
3445, 3613, 3614, 3655, 3654, 5294, 5295, 5336, 5335
3446, 3614, 3615, 3656, 3655, 5295, 5296, 5337, 5336
3447, 3615, 3616, 3657, 3656, 5296, 5297, 5338, 5337
3448, 3616, 3617, 3658, 3657, 5297, 5298, 5339, 5338
3449, 3617, 3618, 3659, 3658, 5298, 5299, 5340, 5339
3450, 3618, 3619, 3660, 3659, 5299, 5300, 5341, 5340
3451, 3619, 3620, 3661, 3660, 5300, 5301, 5342, 5341
3452, 3620, 3621, 3662, 3661, 5301, 5302, 5343, 5342
3453, 3621, 3622, 3663, 3662, 5302, 5303, 5344, 5343
3454, 3622, 3623, 3664, 3663, 5303, 5304, 5345, 5344
3455, 3623, 3624, 3665, 3664, 5304, 5305, 5346, 5345
3456, 3624, 3625, 3666, 3665, 5305, 5306, 5347, 5346
3457, 3625, 3626, 3667, 3666, 5306, 5307, 5348, 5347
3458, 3626, 3627, 3668, 3667, 5307, 5308, 5349, 5348
3459, 3627, 3628, 3669, 3668, 5308, 5309, 5350, 5349
3460, 3628, 3629, 3670, 3669, 5309, 5310, 5351, 5350
3461, 3629, 3630, 3671, 3670, 5310, 5311, 5352, 5351
3462, 3630, 3631, 3672, 3671, 5311, 5312, 5353, 5352
3463, 3631, 3632, 3673, 3672, 5312, 5313, 5354, 5353
3464, 3632, 3633, 3674, 3673, 5313, 5314, 5355, 5354
3465, 3633, 3634, 3675, 3674, 5314, 5315, 5356, 5355
3466, 3634, 3635, 3676, 3675, 5315, 5316, 5357, 5356
3467, 3635, 3636, 3677, 3676, 5316, 5317, 5358, 5357
3468, 3636, 3637, 3678, 3677, 5317, 5318, 5359, 5358
3469, 3637, 3638, 3679, 3678, 5318, 5319, 5360, 5359
3470, 3638, 3639, 3680, 3679, 5319, 5320, 5361, 5360
3471, 3639, 3640, 3681, 3680, 5320, 5321, 5362, 5361
3472, 3640, 3641, 3682, 3681, 5321, 5322, 5363, 5362
3473, 3641, 3642, 3683, 3682, 5322, 5323, 5364, 5363
3474, 3642, 3643, 3684, 3683, 5323, 5324, 5365, 5364
3475, 3643, 3644, 3685, 3684, 5324, 5325, 5366, 5365
3476, 3644, 3645, 3686, 3685, 5325, 5326, 5367, 5366
3477, 3645, 3646, 3687, 3686, 5326, 5327, 5368, 5367
3478, 3646, 3647, 3688, 3687, 5327, 5328, 5369, 5368
3479, 3647, 3648, 3689, 3688, 5328, 5329, 5370, 5369
3480, 3648, 3649, 3690, 3689, 5329, 5330, 5371, 5370
3481, 3650, 3651, 3692, 3691, 5331, 5332, 5373, 5372
3482, 3651, 3652, 3693, 3692, 5332, 5333, 5374, 5373
3483, 3652, 3653, 3694, 3693, 5333, 5334, 5375, 5374
3484, 3653, 3654, 3695, 3694, 5334, 5335, 5376, 5375
3485, 3654, 3655, 3696, 3695, 5335, 5336, 5377, 5376
3486, 3655, 3656, 3697, 3696, 5336, 5337, 5378, 5377
3487, 3656, 3657, 3698, 3697, 5337, 5338, 5379, 5378
3488, 3657, 3658, 3699, 3698, 5338, 5339, 5380, 5379
3489, 3658, 3659, 3700, 3699, 5339, 5340, 5381, 5380
3490, 3659, 3660, 3701, 3700, 5340, 5341, 5382, 5381
3491, 3660, 3661, 3702, 3701, 5341, 5342, 5383, 5382
3492, 3661, 3662, 3703, 3702, 5342, 5343, 5384, 5383
3493, 3662, 3663, 3704, 3703, 5343, 5344, 5385, 5384
3494, 3663, 3664, 3705, 3704, 5344, 5345, 5386, 5385
3495, 3664, 3665, 3706, 3705, 5345, 5346, 5387, 5386
3496, 3665, 3666, 3707, 3706, 5346, 5347, 5388, 5387
3497, 3666, 3667, 3708, 3707, 5347, 5348, 5389, 5388
3498, 3667, 3668, 3709, 3708, 5348, 5349, 5390, 5389
3499, 3668, 3669, 3710, 3709, 5349, 5350, 5391, 5390
3500, 3669, 3670, 3711, 3710, 5350, 5351, 5392, 5391
3501, 3670, 3671, 3712, 3711, 5351, 5352, 5393, 5392
3502, 3671, 3672, 3713, 3712, 5352, 5353, 5394, 5393
3503, 3672, 3673, 3714, 3713, 5353, 5354, 5395, 5394
3504, 3673, 3674, 3715, 3714, 5354, 5355, 5396, 5395
3505, 3674, 3675, 3716, 3715, 5355, 5356, 5397, 5396
3506, 3675, 3676, 3717, 3716, 5356, 5357, 5398, 5397
3507, 3676, 3677, 3718, 3717, 5357, 5358, 5399, 5398
3508, 3677, 3678, 3719, 3718, 5358, 5359, 5400, 5399
3509, 3678, 3679, 3720, 3719, 5359, 5360, 5401, 5400
3510, 3679, 3680, 3721, 3720, 5360, 5361, 5402, 5401
3511, 3680, 3681, 3722, 3721, 5361, 5362, 5403, 5402
3512, 3681, 3682, 3723, 3722, 5362, 5363, 5404, 5403
3513, 3682, 3683, 3724, 3723, 5363, 5364, 5405, 5404
3514, 3683, 3684, 3725, 3724, 5364, 5365, 5406, 5405
3515, 3684, 3685, 3726, 3725, 5365, 5366, 5407, 5406
3516, 3685, 3686, 3727, 3726, 5366, 5367, 5408, 5407
3517, 3686, 3687, 3728, 3727, 5367, 5368, 5409, 5408
3518, 3687, 3688, 3729, 3728, 5368, 5369, 5410, 5409
3519, 3688, 3689, 3730, 3729, 5369, 5370, 5411, 5410
3520, 3689, 3690, 3731, 3730, 5370, 5371, 5412, 5411
3521, 3691, 3692, 3733, 3732, 5372, 5373, 5414, 5413
3522, 3692, 3693, 3734, 3733, 5373, 5374, 5415, 5414
3523, 3693, 3694, 3735, 3734, 5374, 5375, 5416, 5415
3524, 3694, 3695, 3736, 3735, 5375, 5376, 5417, 5416
3525, 3695, 3696, 3737, 3736, 5376, 5377, 5418, 5417
3526, 3696, 3697, 3738, 3737, 5377, 5378, 5419, 5418
3527, 3697, 3698, 3739, 3738, 5378, 5379, 5420, 5419
3528, 3698, 3699, 3740, 3739, 5379, 5380, 5421, 5420
3529, 3699, 3700, 3741, 3740, 5380, 5381, 5422, 5421
3530, 3700, 3701, 3742, 3741, 5381, 5382, 5423, 5422
3531, 3701, 3702, 3743, 3742, 5382, 5383, 5424, 5423
3532, 3702, 3703, 3744, 3743, 5383, 5384, 5425, 5424
3533, 3703, 3704, 3745, 3744, 5384, 5385, 5426, 5425
3534, 3704, 3705, 3746, 3745, 5385, 5386, 5427, 5426
3535, 3705, 3706, 3747, 3746, 5386, 5387, 5428, 5427
3536, 3706, 3707, 3748, 3747, 5387, 5388, 5429, 5428
3537, 3707, 3708, 3749, 3748, 5388, 5389, 5430, 5429
3538, 3708, 3709, 3750, 3749, 5389, 5390, 5431, 5430
3539, 3709, 3710, 3751, 3750, 5390, 5391, 5432, 5431
3540, 3710, 3711, 3752, 3751, 5391, 5392, 5433, 5432
3541, 3711, 3712, 3753, 3752, 5392, 5393, 5434, 5433
3542, 3712, 3713, 3754, 3753, 5393, 5394, 5435, 5434
3543, 3713, 3714, 3755, 3754, 5394, 5395, 5436, 5435
3544, 3714, 3715, 3756, 3755, 5395, 5396, 5437, 5436
3545, 3715, 3716, 3757, 3756, 5396, 5397, 5438, 5437
3546, 3716, 3717, 3758, 3757, 5397, 5398, 5439, 5438
3547, 3717, 3718, 3759, 3758, 5398, 5399, 5440, 5439
3548, 3718, 3719, 3760, 3759, 5399, 5400, 5441, 5440
3549, 3719, 3720, 3761, 3760, 5400, 5401, 5442, 5441
3550, 3720, 3721, 3762, 3761, 5401, 5402, 5443, 5442
3551, 3721, 3722, 3763, 3762, 5402, 5403, 5444, 5443
3552, 3722, 3723, 3764, 3763, 5403, 5404, 5445, 5444
3553, 3723, 3724, 3765, 3764, 5404, 5405, 5446, 5445
3554, 3724, 3725, 3766, 3765, 5405, 5406, 5447, 5446
3555, 3725, 3726, 3767, 3766, 5406, 5407, 5448, 5447
3556, 3726, 3727, 3768, 3767, 5407, 5408, 5449, 5448
3557, 3727, 3728, 3769, 3768, 5408, 5409, 5450, 5449
3558, 3728, 3729, 3770, 3769, 5409, 5410, 5451, 5450
3559, 3729, 3730, 3771, 3770, 5410, 5411, 5452, 5451
3560, 3730, 3731, 3772, 3771, 5411, 5412, 5453, 5452
3561, 3732, 3733, 3774, 3773, 5413, 5414, 5455, 5454
3562, 3733, 3734, 3775, 3774, 5414, 5415, 5456, 5455
3563, 3734, 3735, 3776, 3775, 5415, 5416, 5457, 5456
3564, 3735, 3736, 3777, 3776, 5416, 5417, 5458, 5457
3565, 3736, 3737, 3778, 3777, 5417, 5418, 5459, 5458
3566, 3737, 3738, 3779, 3778, 5418, 5419, 5460, 5459
3567, 3738, 3739, 3780, 3779, 5419, 5420, 5461, 5460
3568, 3739, 3740, 3781, 3780, 5420, 5421, 5462, 5461
3569, 3740, 3741, 3782, 3781, 5421, 5422, 5463, 5462
3570, 3741, 3742, 3783, 3782, 5422, 5423, 5464, 5463
3571, 3742, 3743, 3784, 3783, 5423, 5424, 5465, 5464
3572, 3743, 3744, 3785, 3784, 5424, 5425, 5466, 5465
3573, 3744, 3745, 3786, 3785, 5425, 5426, 5467, 5466
3574, 3745, 3746, 3787, 3786, 5426, 5427, 5468, 5467
3575, 3746, 3747, 3788, 3787, 5427, 5428, 5469, 5468
3576, 3747, 3748, 3789, 3788, 5428, 5429, 5470, 5469
3577, 3748, 3749, 3790, 3789, 5429, 5430, 5471, 5470
3578, 3749, 3750, 3791, 3790, 5430, 5431, 5472, 5471
3579, 3750, 3751, 3792, 3791, 5431, 5432, 5473, 5472
3580, 3751, 3752, 3793, 3792, 5432, 5433, 5474, 5473
3581, 3752, 3753, 3794, 3793, 5433, 5434, 5475, 5474
3582, 3753, 3754, 3795, 3794, 5434, 5435, 5476, 5475
3583, 3754, 3755, 3796, 3795, 5435, 5436, 5477, 5476
3584, 3755, 3756, 3797, 3796, 5436, 5437, 5478, 5477
3585, 3756, 3757, 3798, 3797, 5437, 5438, 5479, 5478
3586, 3757, 3758, 3799, 3798, 5438, 5439, 5480, 5479
3587, 3758, 3759, 3800, 3799, 5439, 5440, 5481, 5480
3588, 3759, 3760, 3801, 3800, 5440, 5441, 5482, 5481
3589, 3760, 3761, 3802, 3801, 5441, 5442, 5483, 5482
3590, 3761, 3762, 3803, 3802, 5442, 5443, 5484, 5483
3591, 3762, 3763, 3804, 3803, 5443, 5444, 5485, 5484
3592, 3763, 3764, 3805, 3804, 5444, 5445, 5486, 5485
3593, 3764, 3765, 3806, 3805, 5445, 5446, 5487, 5486
3594, 3765, 3766, 3807, 3806, 5446, 5447, 5488, 5487
3595, 3766, 3767, 3808, 3807, 5447, 5448, 5489, 5488
3596, 3767, 3768, 3809, 3808, 5448, 5449, 5490, 5489
3597, 3768, 3769, 3810, 3809, 5449, 5450, 5491, 5490
3598, 3769, 3770, 3811, 3810, 5450, 5451, 5492, 5491
3599, 3770, 3771, 3812, 3811, 5451, 5452, 5493, 5492
3600, 3771, 3772, 3813, 3812, 5452, 5453, 5494, 5493
3601, 3773, 3774, 3815, 3814, 5454, 5455, 5496, 5495
3602, 3774, 3775, 3816, 3815, 5455, 5456, 5497, 5496
3603, 3775, 3776, 3817, 3816, 5456, 5457, 5498, 5497
3604, 3776, 3777, 3818, 3817, 5457, 5458, 5499, 5498
3605, 3777, 3778, 3819, 3818, 5458, 5459, 5500, 5499
3606, 3778, 3779, 3820, 3819, 5459, 5460, 5501, 5500
3607, 3779, 3780, 3821, 3820, 5460, 5461, 5502, 5501
3608, 3780, 3781, 3822, 3821, 5461, 5462, 5503, 5502
3609, 3781, 3782, 3823, 3822, 5462, 5463, 5504, 5503
3610, 3782, 3783, 3824, 3823, 5463, 5464, 5505, 5504
3611, 3783, 3784, 3825, 3824, 5464, 5465, 5506, 5505
3612, 3784, 3785, 3826, 3825, 5465, 5466, 5507, 5506
3613, 3785, 3786, 3827, 3826, 5466, 5467, 5508, 5507
3614, 3786, 3787, 3828, 3827, 5467, 5468, 5509, 5508
3615, 3787, 3788, 3829, 3828, 5468, 5469, 5510, 5509
3616, 3788, 3789, 3830, 3829, 5469, 5470, 5511, 5510
3617, 3789, 3790, 3831, 3830, 5470, 5471, 5512, 5511
3618, 3790, 3791, 3832, 3831, 5471, 5472, 5513, 5512
3619, 3791, 3792, 3833, 3832, 5472, 5473, 5514, 5513
3620, 3792, 3793, 3834, 3833, 5473, 5474, 5515, 5514
3621, 3793, 3794, 3835, 3834, 5474, 5475, 5516, 5515
3622, 3794, 3795, 3836, 3835, 5475, 5476, 5517, 5516
3623, 3795, 3796, 3837, 3836, 5476, 5477, 5518, 5517
3624, 3796, 3797, 3838, 3837, 5477, 5478, 5519, 5518
3625, 3797, 3798, 3839, 3838, 5478, 5479, 5520, 5519
3626, 3798, 3799, 3840, 3839, 5479, 5480, 5521, 5520
3627, 3799, 3800, 3841, 3840, 5480, 5481, 5522, 5521
3628, 3800, 3801, 3842, 3841, 5481, 5482, 5523, 5522
3629, 3801, 3802, 3843, 3842, 5482, 5483, 5524, 5523
3630, 3802, 3803, 3844, 3843, 5483, 5484, 5525, 5524
3631, 3803, 3804, 3845, 3844, 5484, 5485, 5526, 5525
3632, 3804, 3805, 3846, 3845, 5485, 5486, 5527, 5526
3633, 3805, 3806, 3847, 3846, 5486, 5487, 5528, 5527
3634, 3806, 3807, 3848, 3847, 5487, 5488, 5529, 5528
3635, 3807, 3808, 3849, 3848, 5488, 5489, 5530, 5529
3636, 3808, 3809, 3850, 3849, 5489, 5490, 5531, 5530
3637, 3809, 3810, 3851, 3850, 5490, 5491, 5532, 5531
3638, 3810, 3811, 3852, 3851, 5491, 5492, 5533, 5532
3639, 3811, 3812, 3853, 3852, 5492, 5493, 5534, 5533
3640, 3812, 3813, 3854, 3853, 5493, 5494, 5535, 5534
3641, 3814, 3815, 3856, 3855, 5495, 5496, 5537, 5536
3642, 3815, 3816, 3857, 3856, 5496, 5497, 5538, 5537
3643, 3816, 3817, 3858, 3857, 5497, 5498, 5539, 5538
3644, 3817, 3818, 3859, 3858, 5498, 5499, 5540, 5539
3645, 3818, 3819, 3860, 3859, 5499, 5500, 5541, 5540
3646, 3819, 3820, 3861, 3860, 5500, 5501, 5542, 5541
3647, 3820, 3821, 3862, 3861, 5501, 5502, 5543, 5542
3648, 3821, 3822, 3863, 3862, 5502, 5503, 5544, 5543
3649, 3822, 3823, 3864, 3863, 5503, 5504, 5545, 5544
3650, 3823, 3824, 3865, 3864, 5504, 5505, 5546, 5545
3651, 3824, 3825, 3866, 3865, 5505, 5506, 5547, 5546
3652, 3825, 3826, 3867, 3866, 5506, 5507, 5548, 5547
3653, 3826, 3827, 3868, 3867, 5507, 5508, 5549, 5548
3654, 3827, 3828, 3869, 3868, 5508, 5509, 5550, 5549
3655, 3828, 3829, 3870, 3869, 5509, 5510, 5551, 5550
3656, 3829, 3830, 3871, 3870, 5510, 5511, 5552, 5551
3657, 3830, 3831, 3872, 3871, 5511, 5512, 5553, 5552
3658, 3831, 3832, 3873, 3872, 5512, 5513, 5554, 5553
3659, 3832, 3833, 3874, 3873, 5513, 5514, 5555, 5554
3660, 3833, 3834, 3875, 3874, 5514, 5515, 5556, 5555
3661, 3834, 3835, 3876, 3875, 5515, 5516, 5557, 5556
3662, 3835, 3836, 3877, 3876, 5516, 5517, 5558, 5557
3663, 3836, 3837, 3878, 3877, 5517, 5518, 5559, 5558
3664, 3837, 3838, 3879, 3878, 5518, 5519, 5560, 5559
3665, 3838, 3839, 3880, 3879, 5519, 5520, 5561, 5560
3666, 3839, 3840, 3881, 3880, 5520, 5521, 5562, 5561
3667, 3840, 3841, 3882, 3881, 5521, 5522, 5563, 5562
3668, 3841, 3842, 3883, 3882, 5522, 5523, 5564, 5563
3669, 3842, 3843, 3884, 3883, 5523, 5524, 5565, 5564
3670, 3843, 3844, 3885, 3884, 5524, 5525, 5566, 5565
3671, 3844, 3845, 3886, 3885, 5525, 5526, 5567, 5566
3672, 3845, 3846, 3887, 3886, 5526, 5527, 5568, 5567
3673, 3846, 3847, 3888, 3887, 5527, 5528, 5569, 5568
3674, 3847, 3848, 3889, 3888, 5528, 5529, 5570, 5569
3675, 3848, 3849, 3890, 3889, 5529, 5530, 5571, 5570
3676, 3849, 3850, 3891, 3890, 5530, 5531, 5572, 5571
3677, 3850, 3851, 3892, 3891, 5531, 5532, 5573, 5572
3678, 3851, 3852, 3893, 3892, 5532, 5533, 5574, 5573
3679, 3852, 3853, 3894, 3893, 5533, 5534, 5575, 5574
3680, 3853, 3854, 3895, 3894, 5534, 5535, 5576, 5575
3681, 3855, 3856, 3897, 3896, 5536, 5537, 5578, 5577
3682, 3856, 3857, 3898, 3897, 5537, 5538, 5579, 5578
3683, 3857, 3858, 3899, 3898, 5538, 5539, 5580, 5579
3684, 3858, 3859, 3900, 3899, 5539, 5540, 5581, 5580
3685, 3859, 3860, 3901, 3900, 5540, 5541, 5582, 5581
3686, 3860, 3861, 3902, 3901, 5541, 5542, 5583, 5582
3687, 3861, 3862, 3903, 3902, 5542, 5543, 5584, 5583
3688, 3862, 3863, 3904, 3903, 5543, 5544, 5585, 5584
3689, 3863, 3864, 3905, 3904, 5544, 5545, 5586, 5585
3690, 3864, 3865, 3906, 3905, 5545, 5546, 5587, 5586
3691, 3865, 3866, 3907, 3906, 5546, 5547, 5588, 5587
3692, 3866, 3867, 3908, 3907, 5547, 5548, 5589, 5588
3693, 3867, 3868, 3909, 3908, 5548, 5549, 5590, 5589
3694, 3868, 3869, 3910, 3909, 5549, 5550, 5591, 5590
3695, 3869, 3870, 3911, 3910, 5550, 5551, 5592, 5591
3696, 3870, 3871, 3912, 3911, 5551, 5552, 5593, 5592
3697, 3871, 3872, 3913, 3912, 5552, 5553, 5594, 5593
3698, 3872, 3873, 3914, 3913, 5553, 5554, 5595, 5594
3699, 3873, 3874, 3915, 3914, 5554, 5555, 5596, 5595
3700, 3874, 3875, 3916, 3915, 5555, 5556, 5597, 5596
3701, 3875, 3876, 3917, 3916, 5556, 5557, 5598, 5597
3702, 3876, 3877, 3918, 3917, 5557, 5558, 5599, 5598
3703, 3877, 3878, 3919, 3918, 5558, 5559, 5600, 5599
3704, 3878, 3879, 3920, 3919, 5559, 5560, 5601, 5600
3705, 3879, 3880, 3921, 3920, 5560, 5561, 5602, 5601
3706, 3880, 3881, 3922, 3921, 5561, 5562, 5603, 5602
3707, 3881, 3882, 3923, 3922, 5562, 5563, 5604, 5603
3708, 3882, 3883, 3924, 3923, 5563, 5564, 5605, 5604
3709, 3883, 3884, 3925, 3924, 5564, 5565, 5606, 5605
3710, 3884, 3885, 3926, 3925, 5565, 5566, 5607, 5606
3711, 3885, 3886, 3927, 3926, 5566, 5567, 5608, 5607
3712, 3886, 3887, 3928, 3927, 5567, 5568, 5609, 5608
3713, 3887, 3888, 3929, 3928, 5568, 5569, 5610, 5609
3714, 3888, 3889, 3930, 3929, 5569, 5570, 5611, 5610
3715, 3889, 3890, 3931, 3930, 5570, 5571, 5612, 5611
3716, 3890, 3891, 3932, 3931, 5571, 5572, 5613, 5612
3717, 3891, 3892, 3933, 3932, 5572, 5573, 5614, 5613
3718, 3892, 3893, 3934, 3933, 5573, 5574, 5615, 5614
3719, 3893, 3894, 3935, 3934, 5574, 5575, 5616, 5615
3720, 3894, 3895, 3936, 3935, 5575, 5576, 5617, 5616
3721, 3896, 3897, 3938, 3937, 5577, 5578, 5619, 5618
3722, 3897, 3898, 3939, 3938, 5578, 5579, 5620, 5619
3723, 3898, 3899, 3940, 3939, 5579, 5580, 5621, 5620
3724, 3899, 3900, 3941, 3940, 5580, 5581, 5622, 5621
3725, 3900, 3901, 3942, 3941, 5581, 5582, 5623, 5622
3726, 3901, 3902, 3943, 3942, 5582, 5583, 5624, 5623
3727, 3902, 3903, 3944, 3943, 5583, 5584, 5625, 5624
3728, 3903, 3904, 3945, 3944, 5584, 5585, 5626, 5625
3729, 3904, 3905, 3946, 3945, 5585, 5586, 5627, 5626
3730, 3905, 3906, 3947, 3946, 5586, 5587, 5628, 5627
3731, 3906, 3907, 3948, 3947, 5587, 5588, 5629, 5628
3732, 3907, 3908, 3949, 3948, 5588, 5589, 5630, 5629
3733, 3908, 3909, 3950, 3949, 5589, 5590, 5631, 5630
3734, 3909, 3910, 3951, 3950, 5590, 5591, 5632, 5631
3735, 3910, 3911, 3952, 3951, 5591, 5592, 5633, 5632
3736, 3911, 3912, 3953, 3952, 5592, 5593, 5634, 5633
3737, 3912, 3913, 3954, 3953, 5593, 5594, 5635, 5634
3738, 3913, 3914, 3955, 3954, 5594, 5595, 5636, 5635
3739, 3914, 3915, 3956, 3955, 5595, 5596, 5637, 5636
3740, 3915, 3916, 3957, 3956, 5596, 5597, 5638, 5637
3741, 3916, 3917, 3958, 3957, 5597, 5598, 5639, 5638
3742, 3917, 3918, 3959, 3958, 5598, 5599, 5640, 5639
3743, 3918, 3919, 3960, 3959, 5599, 5600, 5641, 5640
3744, 3919, 3920, 3961, 3960, 5600, 5601, 5642, 5641
3745, 3920, 3921, 3962, 3961, 5601, 5602, 5643, 5642
3746, 3921, 3922, 3963, 3962, 5602, 5603, 5644, 5643
3747, 3922, 3923, 3964, 3963, 5603, 5604, 5645, 5644
3748, 3923, 3924, 3965, 3964, 5604, 5605, 5646, 5645
3749, 3924, 3925, 3966, 3965, 5605, 5606, 5647, 5646
3750, 3925, 3926, 3967, 3966, 5606, 5607, 5648, 5647
3751, 3926, 3927, 3968, 3967, 5607, 5608, 5649, 5648
3752, 3927, 3928, 3969, 3968, 5608, 5609, 5650, 5649
3753, 3928, 3929, 3970, 3969, 5609, 5610, 5651, 5650
3754, 3929, 3930, 3971, 3970, 5610, 5611, 5652, 5651
3755, 3930, 3931, 3972, 3971, 5611, 5612, 5653, 5652
3756, 3931, 3932, 3973, 3972, 5612, 5613, 5654, 5653
3757, 3932, 3933, 3974, 3973, 5613, 5614, 5655, 5654
3758, 3933, 3934, 3975, 3974, 5614, 5615, 5656, 5655
3759, 3934, 3935, 3976, 3975, 5615, 5616, 5657, 5656
3760, 3935, 3936, 3977, 3976, 5616, 5617, 5658, 5657
3761, 3937, 3938, 3979, 3978, 5618, 5619, 5660, 5659
3762, 3938, 3939, 3980, 3979, 5619, 5620, 5661, 5660
3763, 3939, 3940, 3981, 3980, 5620, 5621, 5662, 5661
3764, 3940, 3941, 3982, 3981, 5621, 5622, 5663, 5662
3765, 3941, 3942, 3983, 3982, 5622, 5623, 5664, 5663
3766, 3942, 3943, 3984, 3983, 5623, 5624, 5665, 5664
3767, 3943, 3944, 3985, 3984, 5624, 5625, 5666, 5665
3768, 3944, 3945, 3986, 3985, 5625, 5626, 5667, 5666
3769, 3945, 3946, 3987, 3986, 5626, 5627, 5668, 5667
3770, 3946, 3947, 3988, 3987, 5627, 5628, 5669, 5668
3771, 3947, 3948, 3989, 3988, 5628, 5629, 5670, 5669
3772, 3948, 3949, 3990, 3989, 5629, 5630, 5671, 5670
3773, 3949, 3950, 3991, 3990, 5630, 5631, 5672, 5671
3774, 3950, 3951, 3992, 3991, 5631, 5632, 5673, 5672
3775, 3951, 3952, 3993, 3992, 5632, 5633, 5674, 5673
3776, 3952, 3953, 3994, 3993, 5633, 5634, 5675, 5674
3777, 3953, 3954, 3995, 3994, 5634, 5635, 5676, 5675
3778, 3954, 3955, 3996, 3995, 5635, 5636, 5677, 5676
3779, 3955, 3956, 3997, 3996, 5636, 5637, 5678, 5677
3780, 3956, 3957, 3998, 3997, 5637, 5638, 5679, 5678
3781, 3957, 3958, 3999, 3998, 5638, 5639, 5680, 5679
3782, 3958, 3959, 4000, 3999, 5639, 5640, 5681, 5680
3783, 3959, 3960, 4001, 4000, 5640, 5641, 5682, 5681
3784, 3960, 3961, 4002, 4001, 5641, 5642, 5683, 5682
3785, 3961, 3962, 4003, 4002, 5642, 5643, 5684, 5683
3786, 3962, 3963, 4004, 4003, 5643, 5644, 5685, 5684
3787, 3963, 3964, 4005, 4004, 5644, 5645, 5686, 5685
3788, 3964, 3965, 4006, 4005, 5645, 5646, 5687, 5686
3789, 3965, 3966, 4007, 4006, 5646, 5647, 5688, 5687
3790, 3966, 3967, 4008, 4007, 5647, 5648, 5689, 5688
3791, 3967, 3968, 4009, 4008, 5648, 5649, 5690, 5689
3792, 3968, 3969, 4010, 4009, 5649, 5650, 5691, 5690
3793, 3969, 3970, 4011, 4010, 5650, 5651, 5692, 5691
3794, 3970, 3971, 4012, 4011, 5651, 5652, 5693, 5692
3795, 3971, 3972, 4013, 4012, 5652, 5653, 5694, 5693
3796, 3972, 3973, 4014, 4013, 5653, 5654, 5695, 5694
3797, 3973, 3974, 4015, 4014, 5654, 5655, 5696, 5695
3798, 3974, 3975, 4016, 4015, 5655, 5656, 5697, 5696
3799, 3975, 3976, 4017, 4016, 5656, 5657, 5698, 5697
3800, 3976, 3977, 4018, 4017, 5657, 5658, 5699, 5698
3801, 3978, 3979, 4020, 4019, 5659, 5660, 5701, 5700
3802, 3979, 3980, 4021, 4020, 5660, 5661, 5702, 5701
3803, 3980, 3981, 4022, 4021, 5661, 5662, 5703, 5702
3804, 3981, 3982, 4023, 4022, 5662, 5663, 5704, 5703
3805, 3982, 3983, 4024, 4023, 5663, 5664, 5705, 5704
3806, 3983, 3984, 4025, 4024, 5664, 5665, 5706, 5705
3807, 3984, 3985, 4026, 4025, 5665, 5666, 5707, 5706
3808, 3985, 3986, 4027, 4026, 5666, 5667, 5708, 5707
3809, 3986, 3987, 4028, 4027, 5667, 5668, 5709, 5708
3810, 3987, 3988, 4029, 4028, 5668, 5669, 5710, 5709
3811, 3988, 3989, 4030, 4029, 5669, 5670, 5711, 5710
3812, 3989, 3990, 4031, 4030, 5670, 5671, 5712, 5711
3813, 3990, 3991, 4032, 4031, 5671, 5672, 5713, 5712
3814, 3991, 3992, 4033, 4032, 5672, 5673, 5714, 5713
3815, 3992, 3993, 4034, 4033, 5673, 5674, 5715, 5714
3816, 3993, 3994, 4035, 4034, 5674, 5675, 5716, 5715
3817, 3994, 3995, 4036, 4035, 5675, 5676, 5717, 5716
3818, 3995, 3996, 4037, 4036, 5676, 5677, 5718, 5717
3819, 3996, 3997, 4038, 4037, 5677, 5678, 5719, 5718
3820, 3997, 3998, 4039, 4038, 5678, 5679, 5720, 5719
3821, 3998, 3999, 4040, 4039, 5679, 5680, 5721, 5720
3822, 3999, 4000, 4041, 4040, 5680, 5681, 5722, 5721
3823, 4000, 4001, 4042, 4041, 5681, 5682, 5723, 5722
3824, 4001, 4002, 4043, 4042, 5682, 5683, 5724, 5723
3825, 4002, 4003, 4044, 4043, 5683, 5684, 5725, 5724
3826, 4003, 4004, 4045, 4044, 5684, 5685, 5726, 5725
3827, 4004, 4005, 4046, 4045, 5685, 5686, 5727, 5726
3828, 4005, 4006, 4047, 4046, 5686, 5687, 5728, 5727
3829, 4006, 4007, 4048, 4047, 5687, 5688, 5729, 5728
3830, 4007, 4008, 4049, 4048, 5688, 5689, 5730, 5729
3831, 4008, 4009, 4050, 4049, 5689, 5690, 5731, 5730
3832, 4009, 4010, 4051, 4050, 5690, 5691, 5732, 5731
3833, 4010, 4011, 4052, 4051, 5691, 5692, 5733, 5732
3834, 4011, 4012, 4053, 4052, 5692, 5693, 5734, 5733
3835, 4012, 4013, 4054, 4053, 5693, 5694, 5735, 5734
3836, 4013, 4014, 4055, 4054, 5694, 5695, 5736, 5735
3837, 4014, 4015, 4056, 4055, 5695, 5696, 5737, 5736
3838, 4015, 4016, 4057, 4056, 5696, 5697, 5738, 5737
3839, 4016, 4017, 4058, 4057, 5697, 5698, 5739, 5738
3840, 4017, 4018, 4059, 4058, 5698, 5699, 5740, 5739
3841, 4019, 4020, 4061, 4060, 5700, 5701, 5742, 5741
3842, 4020, 4021, 4062, 4061, 5701, 5702, 5743, 5742
3843, 4021, 4022, 4063, 4062, 5702, 5703, 5744, 5743
3844, 4022, 4023, 4064, 4063, 5703, 5704, 5745, 5744
3845, 4023, 4024, 4065, 4064, 5704, 5705, 5746, 5745
3846, 4024, 4025, 4066, 4065, 5705, 5706, 5747, 5746
3847, 4025, 4026, 4067, 4066, 5706, 5707, 5748, 5747
3848, 4026, 4027, 4068, 4067, 5707, 5708, 5749, 5748
3849, 4027, 4028, 4069, 4068, 5708, 5709, 5750, 5749
3850, 4028, 4029, 4070, 4069, 5709, 5710, 5751, 5750
3851, 4029, 4030, 4071, 4070, 5710, 5711, 5752, 5751
3852, 4030, 4031, 4072, 4071, 5711, 5712, 5753, 5752
3853, 4031, 4032, 4073, 4072, 5712, 5713, 5754, 5753
3854, 4032, 4033, 4074, 4073, 5713, 5714, 5755, 5754
3855, 4033, 4034, 4075, 4074, 5714, 5715, 5756, 5755
3856, 4034, 4035, 4076, 4075, 5715, 5716, 5757, 5756
3857, 4035, 4036, 4077, 4076, 5716, 5717, 5758, 5757
3858, 4036, 4037, 4078, 4077, 5717, 5718, 5759, 5758
3859, 4037, 4038, 8406, 4078, 5718, 5719, 5760, 5759
3860, 4038, 4039, 8413, 8406, 5719, 5720, 5761, 5760
3861, 4039, 4040, 8420, 8413, 5720, 5721, 5762, 5761
3862, 4040, 4041, 4082, 8420, 5721, 5722, 5763, 5762
3863, 4041, 4042, 4083, 4082, 5722, 5723, 5764, 5763
3864, 4042, 4043, 4084, 4083, 5723, 5724, 5765, 5764
3865, 4043, 4044, 4085, 4084, 5724, 5725, 5766, 5765
3866, 4044, 4045, 4086, 4085, 5725, 5726, 5767, 5766
3867, 4045, 4046, 4087, 4086, 5726, 5727, 5768, 5767
3868, 4046, 4047, 4088, 4087, 5727, 5728, 5769, 5768
3869, 4047, 4048, 4089, 4088, 5728, 5729, 5770, 5769
3870, 4048, 4049, 4090, 4089, 5729, 5730, 5771, 5770
3871, 4049, 4050, 4091, 4090, 5730, 5731, 5772, 5771
3872, 4050, 4051, 4092, 4091, 5731, 5732, 5773, 5772
3873, 4051, 4052, 4093, 4092, 5732, 5733, 5774, 5773
3874, 4052, 4053, 4094, 4093, 5733, 5734, 5775, 5774
3875, 4053, 4054, 4095, 4094, 5734, 5735, 5776, 5775
3876, 4054, 4055, 4096, 4095, 5735, 5736, 5777, 5776
3877, 4055, 4056, 4097, 4096, 5736, 5737, 5778, 5777
3878, 4056, 4057, 4098, 4097, 5737, 5738, 5779, 5778
3879, 4057, 4058, 4099, 4098, 5738, 5739, 5780, 5779
3880, 4058, 4059, 4100, 4099, 5739, 5740, 5781, 5780
3881, 4060, 4061, 4102, 4101, 5741, 5742, 5783, 5782
3882, 4061, 4062, 4103, 4102, 5742, 5743, 5784, 5783
3883, 4062, 4063, 4104, 4103, 5743, 5744, 5785, 5784
3884, 4063, 4064, 4105, 4104, 5744, 5745, 5786, 5785
3885, 4064, 4065, 4106, 4105, 5745, 5746, 5787, 5786
3886, 4065, 4066, 4107, 4106, 5746, 5747, 5788, 5787
3887, 4066, 4067, 4108, 4107, 5747, 5748, 5789, 5788
3888, 4067, 4068, 4109, 4108, 5748, 5749, 5790, 5789
3889, 4068, 4069, 4110, 4109, 5749, 5750, 5791, 5790
3890, 4069, 4070, 4111, 4110, 5750, 5751, 5792, 5791
3891, 4070, 4071, 4112, 4111, 5751, 5752, 5793, 5792
3892, 4071, 4072, 4113, 4112, 5752, 5753, 5794, 5793
3893, 4072, 4073, 4114, 4113, 5753, 5754, 5795, 5794
3894, 4073, 4074, 4115, 4114, 5754, 5755, 5796, 5795
3895, 4074, 4075, 4116, 4115, 5755, 5756, 5797, 5796
3896, 4075, 4076, 4117, 4116, 5756, 5757, 5798, 5797
3897, 4076, 4077, 4118, 4117, 5757, 5758, 5799, 5798
3898, 4077, 4078, 4119, 4118, 5758, 5759, 5800, 5799
3899, 4078, 8406, 8407, 4119, 5759, 5760, 5801, 5800
3900, 8406, 8413, 8414, 8407, 5760, 5761, 5802, 5801
3901, 8413, 8420, 8421, 8414, 5761, 5762, 5803, 5802
3902, 8420, 4082, 4123, 8421, 5762, 5763, 5804, 5803
3903, 4082, 4083, 4124, 4123, 5763, 5764, 5805, 5804
3904, 4083, 4084, 4125, 4124, 5764, 5765, 5806, 5805
3905, 4084, 4085, 4126, 4125, 5765, 5766, 5807, 5806
3906, 4085, 4086, 4127, 4126, 5766, 5767, 5808, 5807
3907, 4086, 4087, 4128, 4127, 5767, 5768, 5809, 5808
3908, 4087, 4088, 4129, 4128, 5768, 5769, 5810, 5809
3909, 4088, 4089, 4130, 4129, 5769, 5770, 5811, 5810
3910, 4089, 4090, 4131, 4130, 5770, 5771, 5812, 5811
3911, 4090, 4091, 4132, 4131, 5771, 5772, 5813, 5812
3912, 4091, 4092, 4133, 4132, 5772, 5773, 5814, 5813
3913, 4092, 4093, 4134, 4133, 5773, 5774, 5815, 5814
3914, 4093, 4094, 4135, 4134, 5774, 5775, 5816, 5815
3915, 4094, 4095, 4136, 4135, 5775, 5776, 5817, 5816
3916, 4095, 4096, 4137, 4136, 5776, 5777, 5818, 5817
3917, 4096, 4097, 4138, 4137, 5777, 5778, 5819, 5818
3918, 4097, 4098, 4139, 4138, 5778, 5779, 5820, 5819
3919, 4098, 4099, 4140, 4139, 5779, 5780, 5821, 5820
3920, 4099, 4100, 4141, 4140, 5780, 5781, 5822, 5821
3921, 4101, 4102, 4143, 4142, 5782, 5783, 5824, 5823
3922, 4102, 4103, 4144, 4143, 5783, 5784, 5825, 5824
3923, 4103, 4104, 4145, 4144, 5784, 5785, 5826, 5825
3924, 4104, 4105, 4146, 4145, 5785, 5786, 5827, 5826
3925, 4105, 4106, 4147, 4146, 5786, 5787, 5828, 5827
3926, 4106, 4107, 4148, 4147, 5787, 5788, 5829, 5828
3927, 4107, 4108, 4149, 4148, 5788, 5789, 5830, 5829
3928, 4108, 4109, 4150, 4149, 5789, 5790, 5831, 5830
3929, 4109, 4110, 4151, 4150, 5790, 5791, 5832, 5831
3930, 4110, 4111, 4152, 4151, 5791, 5792, 5833, 5832
3931, 4111, 4112, 4153, 4152, 5792, 5793, 5834, 5833
3932, 4112, 4113, 4154, 4153, 5793, 5794, 5835, 5834
3933, 4113, 4114, 4155, 4154, 5794, 5795, 5836, 5835
3934, 4114, 4115, 4156, 4155, 5795, 5796, 5837, 5836
3935, 4115, 4116, 4157, 4156, 5796, 5797, 5838, 5837
3936, 4116, 4117, 4158, 4157, 5797, 5798, 5839, 5838
3937, 4117, 4118, 4159, 4158, 5798, 5799, 5840, 5839
3938, 4118, 4119, 4160, 4159, 5799, 5800, 5841, 5840
3939, 4119, 8407, 8408, 4160, 5800, 5801, 5842, 5841
3940, 8407, 8414, 8415, 8408, 5801, 5802, 5843, 5842
3941, 8414, 8421, 8422, 8415, 5802, 5803, 5844, 5843
3942, 8421, 4123, 4164, 8422, 5803, 5804, 5845, 5844
3943, 4123, 4124, 4165, 4164, 5804, 5805, 5846, 5845
3944, 4124, 4125, 4166, 4165, 5805, 5806, 5847, 5846
3945, 4125, 4126, 4167, 4166, 5806, 5807, 5848, 5847
3946, 4126, 4127, 4168, 4167, 5807, 5808, 5849, 5848
3947, 4127, 4128, 4169, 4168, 5808, 5809, 5850, 5849
3948, 4128, 4129, 4170, 4169, 5809, 5810, 5851, 5850
3949, 4129, 4130, 4171, 4170, 5810, 5811, 5852, 5851
3950, 4130, 4131, 4172, 4171, 5811, 5812, 5853, 5852
3951, 4131, 4132, 4173, 4172, 5812, 5813, 5854, 5853
3952, 4132, 4133, 4174, 4173, 5813, 5814, 5855, 5854
3953, 4133, 4134, 4175, 4174, 5814, 5815, 5856, 5855
3954, 4134, 4135, 4176, 4175, 5815, 5816, 5857, 5856
3955, 4135, 4136, 4177, 4176, 5816, 5817, 5858, 5857
3956, 4136, 4137, 4178, 4177, 5817, 5818, 5859, 5858
3957, 4137, 4138, 4179, 4178, 5818, 5819, 5860, 5859
3958, 4138, 4139, 4180, 4179, 5819, 5820, 5861, 5860
3959, 4139, 4140, 4181, 4180, 5820, 5821, 5862, 5861
3960, 4140, 4141, 4182, 4181, 5821, 5822, 5863, 5862
3961, 4142, 4143, 4184, 4183, 5823, 5824, 5865, 5864
3962, 4143, 4144, 4185, 4184, 5824, 5825, 5866, 5865
3963, 4144, 4145, 4186, 4185, 5825, 5826, 5867, 5866
3964, 4145, 4146, 4187, 4186, 5826, 5827, 5868, 5867
3965, 4146, 4147, 4188, 4187, 5827, 5828, 5869, 5868
3966, 4147, 4148, 4189, 4188, 5828, 5829, 5870, 5869
3967, 4148, 4149, 4190, 4189, 5829, 5830, 5871, 5870
3968, 4149, 4150, 4191, 4190, 5830, 5831, 5872, 5871
3969, 4150, 4151, 4192, 4191, 5831, 5832, 5873, 5872
3970, 4151, 4152, 4193, 4192, 5832, 5833, 5874, 5873
3971, 4152, 4153, 4194, 4193, 5833, 5834, 5875, 5874
3972, 4153, 4154, 4195, 4194, 5834, 5835, 5876, 5875
3973, 4154, 4155, 4196, 4195, 5835, 5836, 5877, 5876
3974, 4155, 4156, 4197, 4196, 5836, 5837, 5878, 5877
3975, 4156, 4157, 4198, 4197, 5837, 5838, 5879, 5878
3976, 4157, 4158, 4199, 4198, 5838, 5839, 5880, 5879
3977, 4158, 4159, 4200, 4199, 5839, 5840, 5881, 5880
3978, 4159, 4160, 4201, 4200, 5840, 5841, 5882, 5881
3979, 4160, 8408, 8409, 4201, 5841, 5842, 5883, 5882
3980, 8408, 8415, 8416, 8409, 5842, 5843, 5884, 5883
3981, 8415, 8422, 8423, 8416, 5843, 5844, 5885, 5884
3982, 8422, 4164, 4205, 8423, 5844, 5845, 5886, 5885
3983, 4164, 4165, 4206, 4205, 5845, 5846, 5887, 5886
3984, 4165, 4166, 4207, 4206, 5846, 5847, 5888, 5887
3985, 4166, 4167, 4208, 4207, 5847, 5848, 5889, 5888
3986, 4167, 4168, 4209, 4208, 5848, 5849, 5890, 5889
3987, 4168, 4169, 4210, 4209, 5849, 5850, 5891, 5890
3988, 4169, 4170, 4211, 4210, 5850, 5851, 5892, 5891
3989, 4170, 4171, 4212, 4211, 5851, 5852, 5893, 5892
3990, 4171, 4172, 4213, 4212, 5852, 5853, 5894, 5893
3991, 4172, 4173, 4214, 4213, 5853, 5854, 5895, 5894
3992, 4173, 4174, 4215, 4214, 5854, 5855, 5896, 5895
3993, 4174, 4175, 4216, 4215, 5855, 5856, 5897, 5896
3994, 4175, 4176, 4217, 4216, 5856, 5857, 5898, 5897
3995, 4176, 4177, 4218, 4217, 5857, 5858, 5899, 5898
3996, 4177, 4178, 4219, 4218, 5858, 5859, 5900, 5899
3997, 4178, 4179, 4220, 4219, 5859, 5860, 5901, 5900
3998, 4179, 4180, 4221, 4220, 5860, 5861, 5902, 5901
3999, 4180, 4181, 4222, 4221, 5861, 5862, 5903, 5902
4000, 4181, 4182, 4223, 4222, 5862, 5863, 5904, 5903
4001, 4183, 4184, 4225, 4224, 5864, 5865, 5906, 5905
4002, 4184, 4185, 4226, 4225, 5865, 5866, 5907, 5906
4003, 4185, 4186, 4227, 4226, 5866, 5867, 5908, 5907
4004, 4186, 4187, 4228, 4227, 5867, 5868, 5909, 5908
4005, 4187, 4188, 4229, 4228, 5868, 5869, 5910, 5909
4006, 4188, 4189, 4230, 4229, 5869, 5870, 5911, 5910
4007, 4189, 4190, 4231, 4230, 5870, 5871, 5912, 5911
4008, 4190, 4191, 4232, 4231, 5871, 5872, 5913, 5912
4009, 4191, 4192, 4233, 4232, 5872, 5873, 5914, 5913
4010, 4192, 4193, 4234, 4233, 5873, 5874, 5915, 5914
4011, 4193, 4194, 4235, 4234, 5874, 5875, 5916, 5915
4012, 4194, 4195, 4236, 4235, 5875, 5876, 5917, 5916
4013, 4195, 4196, 4237, 4236, 5876, 5877, 5918, 5917
4014, 4196, 4197, 4238, 4237, 5877, 5878, 5919, 5918
4015, 4197, 4198, 4239, 4238, 5878, 5879, 5920, 5919
4016, 4198, 4199, 4240, 4239, 5879, 5880, 5921, 5920
4017, 4199, 4200, 4241, 4240, 5880, 5881, 5922, 5921
4018, 4200, 4201, 4242, 4241, 5881, 5882, 5923, 5922
4019, 4201, 8409, 8410, 4242, 5882, 5883, 5924, 5923
4020, 8409, 8416, 8417, 8410, 5883, 5884, 5925, 5924
4021, 8416, 8423, 8424, 8417, 5884, 5885, 5926, 5925
4022, 8423, 4205, 4246, 8424, 5885, 5886, 5927, 5926
4023, 4205, 4206, 4247, 4246, 5886, 5887, 5928, 5927
4024, 4206, 4207, 4248, 4247, 5887, 5888, 5929, 5928
4025, 4207, 4208, 4249, 4248, 5888, 5889, 5930, 5929
4026, 4208, 4209, 4250, 4249, 5889, 5890, 5931, 5930
4027, 4209, 4210, 4251, 4250, 5890, 5891, 5932, 5931
4028, 4210, 4211, 4252, 4251, 5891, 5892, 5933, 5932
4029, 4211, 4212, 4253, 4252, 5892, 5893, 5934, 5933
4030, 4212, 4213, 4254, 4253, 5893, 5894, 5935, 5934
4031, 4213, 4214, 4255, 4254, 5894, 5895, 5936, 5935
4032, 4214, 4215, 4256, 4255, 5895, 5896, 5937, 5936
4033, 4215, 4216, 4257, 4256, 5896, 5897, 5938, 5937
4034, 4216, 4217, 4258, 4257, 5897, 5898, 5939, 5938
4035, 4217, 4218, 4259, 4258, 5898, 5899, 5940, 5939
4036, 4218, 4219, 4260, 4259, 5899, 5900, 5941, 5940
4037, 4219, 4220, 4261, 4260, 5900, 5901, 5942, 5941
4038, 4220, 4221, 4262, 4261, 5901, 5902, 5943, 5942
4039, 4221, 4222, 4263, 4262, 5902, 5903, 5944, 5943
4040, 4222, 4223, 4264, 4263, 5903, 5904, 5945, 5944
4041, 4224, 4225, 4266, 4265, 5905, 5906, 5947, 5946
4042, 4225, 4226, 4267, 4266, 5906, 5907, 5948, 5947
4043, 4226, 4227, 4268, 4267, 5907, 5908, 5949, 5948
4044, 4227, 4228, 4269, 4268, 5908, 5909, 5950, 5949
4045, 4228, 4229, 4270, 4269, 5909, 5910, 5951, 5950
4046, 4229, 4230, 4271, 4270, 5910, 5911, 5952, 5951
4047, 4230, 4231, 4272, 4271, 5911, 5912, 5953, 5952
4048, 4231, 4232, 4273, 4272, 5912, 5913, 5954, 5953
4049, 4232, 4233, 4274, 4273, 5913, 5914, 5955, 5954
4050, 4233, 4234, 4275, 4274, 5914, 5915, 5956, 5955
4051, 4234, 4235, 4276, 4275, 5915, 5916, 5957, 5956
4052, 4235, 4236, 4277, 4276, 5916, 5917, 5958, 5957
4053, 4236, 4237, 4278, 4277, 5917, 5918, 5959, 5958
4054, 4237, 4238, 4279, 4278, 5918, 5919, 5960, 5959
4055, 4238, 4239, 4280, 4279, 5919, 5920, 5961, 5960
4056, 4239, 4240, 4281, 4280, 5920, 5921, 5962, 5961
4057, 4240, 4241, 4282, 4281, 5921, 5922, 5963, 5962
4058, 4241, 4242, 4283, 4282, 5922, 5923, 5964, 5963
4059, 4242, 8410, 8411, 4283, 5923, 5924, 5965, 5964
4060, 8410, 8417, 8418, 8411, 5924, 5925, 5966, 5965
4061, 8417, 8424, 8425, 8418, 5925, 5926, 5967, 5966
4062, 8424, 4246, 4287, 8425, 5926, 5927, 5968, 5967
4063, 4246, 4247, 4288, 4287, 5927, 5928, 5969, 5968
4064, 4247, 4248, 4289, 4288, 5928, 5929, 5970, 5969
4065, 4248, 4249, 4290, 4289, 5929, 5930, 5971, 5970
4066, 4249, 4250, 4291, 4290, 5930, 5931, 5972, 5971
4067, 4250, 4251, 4292, 4291, 5931, 5932, 5973, 5972
4068, 4251, 4252, 4293, 4292, 5932, 5933, 5974, 5973
4069, 4252, 4253, 4294, 4293, 5933, 5934, 5975, 5974
4070, 4253, 4254, 4295, 4294, 5934, 5935, 5976, 5975
4071, 4254, 4255, 4296, 4295, 5935, 5936, 5977, 5976
4072, 4255, 4256, 4297, 4296, 5936, 5937, 5978, 5977
4073, 4256, 4257, 4298, 4297, 5937, 5938, 5979, 5978
4074, 4257, 4258, 4299, 4298, 5938, 5939, 5980, 5979
4075, 4258, 4259, 4300, 4299, 5939, 5940, 5981, 5980
4076, 4259, 4260, 4301, 4300, 5940, 5941, 5982, 5981
4077, 4260, 4261, 4302, 4301, 5941, 5942, 5983, 5982
4078, 4261, 4262, 4303, 4302, 5942, 5943, 5984, 5983
4079, 4262, 4263, 4304, 4303, 5943, 5944, 5985, 5984
4080, 4263, 4264, 4305, 4304, 5944, 5945, 5986, 5985
4081, 4265, 4266, 4307, 4306, 5946, 5947, 5988, 5987
4082, 4266, 4267, 4308, 4307, 5947, 5948, 5989, 5988
4083, 4267, 4268, 4309, 4308, 5948, 5949, 5990, 5989
4084, 4268, 4269, 4310, 4309, 5949, 5950, 5991, 5990
4085, 4269, 4270, 4311, 4310, 5950, 5951, 5992, 5991
4086, 4270, 4271, 4312, 4311, 5951, 5952, 5993, 5992
4087, 4271, 4272, 4313, 4312, 5952, 5953, 5994, 5993
4088, 4272, 4273, 4314, 4313, 5953, 5954, 5995, 5994
4089, 4273, 4274, 4315, 4314, 5954, 5955, 5996, 5995
4090, 4274, 4275, 4316, 4315, 5955, 5956, 5997, 5996
4091, 4275, 4276, 4317, 4316, 5956, 5957, 5998, 5997
4092, 4276, 4277, 4318, 4317, 5957, 5958, 5999, 5998
4093, 4277, 4278, 4319, 4318, 5958, 5959, 6000, 5999
4094, 4278, 4279, 4320, 4319, 5959, 5960, 6001, 6000
4095, 4279, 4280, 4321, 4320, 5960, 5961, 6002, 6001
4096, 4280, 4281, 4322, 4321, 5961, 5962, 6003, 6002
4097, 4281, 4282, 4323, 4322, 5962, 5963, 6004, 6003
4098, 4282, 4283, 4324, 4323, 5963, 5964, 6005, 6004
4099, 4283, 8411, 8412, 4324, 5964, 5965, 6006, 6005
4100, 8411, 8418, 8419, 8412, 5965, 5966, 6007, 6006
4101, 8418, 8425, 8426, 8419, 5966, 5967, 6008, 6007
4102, 8425, 4287, 4328, 8426, 5967, 5968, 6009, 6008
4103, 4287, 4288, 4329, 4328, 5968, 5969, 6010, 6009
4104, 4288, 4289, 4330, 4329, 5969, 5970, 6011, 6010
4105, 4289, 4290, 4331, 4330, 5970, 5971, 6012, 6011
4106, 4290, 4291, 4332, 4331, 5971, 5972, 6013, 6012
4107, 4291, 4292, 4333, 4332, 5972, 5973, 6014, 6013
4108, 4292, 4293, 4334, 4333, 5973, 5974, 6015, 6014
4109, 4293, 4294, 4335, 4334, 5974, 5975, 6016, 6015
4110, 4294, 4295, 4336, 4335, 5975, 5976, 6017, 6016
4111, 4295, 4296, 4337, 4336, 5976, 5977, 6018, 6017
4112, 4296, 4297, 4338, 4337, 5977, 5978, 6019, 6018
4113, 4297, 4298, 4339, 4338, 5978, 5979, 6020, 6019
4114, 4298, 4299, 4340, 4339, 5979, 5980, 6021, 6020
4115, 4299, 4300, 4341, 4340, 5980, 5981, 6022, 6021
4116, 4300, 4301, 4342, 4341, 5981, 5982, 6023, 6022
4117, 4301, 4302, 4343, 4342, 5982, 5983, 6024, 6023
4118, 4302, 4303, 4344, 4343, 5983, 5984, 6025, 6024
4119, 4303, 4304, 4345, 4344, 5984, 5985, 6026, 6025
4120, 4304, 4305, 4346, 4345, 5985, 5986, 6027, 6026
4121, 4306, 4307, 4348, 4347, 5987, 5988, 6029, 6028
4122, 4307, 4308, 4349, 4348, 5988, 5989, 6030, 6029
4123, 4308, 4309, 4350, 4349, 5989, 5990, 6031, 6030
4124, 4309, 4310, 4351, 4350, 5990, 5991, 6032, 6031
4125, 4310, 4311, 4352, 4351, 5991, 5992, 6033, 6032
4126, 4311, 4312, 4353, 4352, 5992, 5993, 6034, 6033
4127, 4312, 4313, 4354, 4353, 5993, 5994, 6035, 6034
4128, 4313, 4314, 4355, 4354, 5994, 5995, 6036, 6035
4129, 4314, 4315, 4356, 4355, 5995, 5996, 6037, 6036
4130, 4315, 4316, 4357, 4356, 5996, 5997, 6038, 6037
4131, 4316, 4317, 4358, 4357, 5997, 5998, 6039, 6038
4132, 4317, 4318, 4359, 4358, 5998, 5999, 6040, 6039
4133, 4318, 4319, 4360, 4359, 5999, 6000, 6041, 6040
4134, 4319, 4320, 4361, 4360, 6000, 6001, 6042, 6041
4135, 4320, 4321, 4362, 4361, 6001, 6002, 6043, 6042
4136, 4321, 4322, 4363, 4362, 6002, 6003, 6044, 6043
4137, 4322, 4323, 4364, 4363, 6003, 6004, 6045, 6044
4138, 4323, 4324, 4365, 4364, 6004, 6005, 6046, 6045
4139, 4324, 8412, 4366, 4365, 6005, 6006, 6047, 6046
4140, 8412, 8419, 4367, 4366, 6006, 6007, 6048, 6047
4141, 8419, 8426, 4368, 4367, 6007, 6008, 6049, 6048
4142, 8426, 4328, 4369, 4368, 6008, 6009, 6050, 6049
4143, 4328, 4329, 4370, 4369, 6009, 6010, 6051, 6050
4144, 4329, 4330, 4371, 4370, 6010, 6011, 6052, 6051
4145, 4330, 4331, 4372, 4371, 6011, 6012, 6053, 6052
4146, 4331, 4332, 4373, 4372, 6012, 6013, 6054, 6053
4147, 4332, 4333, 4374, 4373, 6013, 6014, 6055, 6054
4148, 4333, 4334, 4375, 4374, 6014, 6015, 6056, 6055
4149, 4334, 4335, 4376, 4375, 6015, 6016, 6057, 6056
4150, 4335, 4336, 4377, 4376, 6016, 6017, 6058, 6057
4151, 4336, 4337, 4378, 4377, 6017, 6018, 6059, 6058
4152, 4337, 4338, 4379, 4378, 6018, 6019, 6060, 6059
4153, 4338, 4339, 4380, 4379, 6019, 6020, 6061, 6060
4154, 4339, 4340, 4381, 4380, 6020, 6021, 6062, 6061
4155, 4340, 4341, 4382, 4381, 6021, 6022, 6063, 6062
4156, 4341, 4342, 4383, 4382, 6022, 6023, 6064, 6063
4157, 4342, 4343, 4384, 4383, 6023, 6024, 6065, 6064
4158, 4343, 4344, 4385, 4384, 6024, 6025, 6066, 6065
4159, 4344, 4345, 4386, 4385, 6025, 6026, 6067, 6066
4160, 4345, 4346, 4387, 4386, 6026, 6027, 6068, 6067
4161, 4347, 4348, 4389, 4388, 6028, 6029, 6070, 6069
4162, 4348, 4349, 4390, 4389, 6029, 6030, 6071, 6070
4163, 4349, 4350, 4391, 4390, 6030, 6031, 6072, 6071
4164, 4350, 4351, 4392, 4391, 6031, 6032, 6073, 6072
4165, 4351, 4352, 4393, 4392, 6032, 6033, 6074, 6073
4166, 4352, 4353, 4394, 4393, 6033, 6034, 6075, 6074
4167, 4353, 4354, 4395, 4394, 6034, 6035, 6076, 6075
4168, 4354, 4355, 4396, 4395, 6035, 6036, 6077, 6076
4169, 4355, 4356, 4397, 4396, 6036, 6037, 6078, 6077
4170, 4356, 4357, 4398, 4397, 6037, 6038, 6079, 6078
4171, 4357, 4358, 4399, 4398, 6038, 6039, 6080, 6079
4172, 4358, 4359, 4400, 4399, 6039, 6040, 6081, 6080
4173, 4359, 4360, 4401, 4400, 6040, 6041, 6082, 6081
4174, 4360, 4361, 4402, 4401, 6041, 6042, 6083, 6082
4175, 4361, 4362, 4403, 4402, 6042, 6043, 6084, 6083
4176, 4362, 4363, 4404, 4403, 6043, 6044, 6085, 6084
4177, 4363, 4364, 4405, 4404, 6044, 6045, 6086, 6085
4178, 4364, 4365, 4406, 4405, 6045, 6046, 6087, 6086
4179, 4365, 4366, 4407, 4406, 6046, 6047, 6088, 6087
4180, 4366, 4367, 4408, 4407, 6047, 6048, 6089, 6088
4181, 4367, 4368, 4409, 4408, 6048, 6049, 6090, 6089
4182, 4368, 4369, 4410, 4409, 6049, 6050, 6091, 6090
4183, 4369, 4370, 4411, 4410, 6050, 6051, 6092, 6091
4184, 4370, 4371, 4412, 4411, 6051, 6052, 6093, 6092
4185, 4371, 4372, 4413, 4412, 6052, 6053, 6094, 6093
4186, 4372, 4373, 4414, 4413, 6053, 6054, 6095, 6094
4187, 4373, 4374, 4415, 4414, 6054, 6055, 6096, 6095
4188, 4374, 4375, 4416, 4415, 6055, 6056, 6097, 6096
4189, 4375, 4376, 4417, 4416, 6056, 6057, 6098, 6097
4190, 4376, 4377, 4418, 4417, 6057, 6058, 6099, 6098
4191, 4377, 4378, 4419, 4418, 6058, 6059, 6100, 6099
4192, 4378, 4379, 4420, 4419, 6059, 6060, 6101, 6100
4193, 4379, 4380, 4421, 4420, 6060, 6061, 6102, 6101
4194, 4380, 4381, 4422, 4421, 6061, 6062, 6103, 6102
4195, 4381, 4382, 4423, 4422, 6062, 6063, 6104, 6103
4196, 4382, 4383, 4424, 4423, 6063, 6064, 6105, 6104
4197, 4383, 4384, 4425, 4424, 6064, 6065, 6106, 6105
4198, 4384, 4385, 4426, 4425, 6065, 6066, 6107, 6106
4199, 4385, 4386, 4427, 4426, 6066, 6067, 6108, 6107
4200, 4386, 4387, 4428, 4427, 6067, 6068, 6109, 6108
4201, 4388, 4389, 4430, 4429, 6069, 6070, 6111, 6110
4202, 4389, 4390, 4431, 4430, 6070, 6071, 6112, 6111
4203, 4390, 4391, 4432, 4431, 6071, 6072, 6113, 6112
4204, 4391, 4392, 4433, 4432, 6072, 6073, 6114, 6113
4205, 4392, 4393, 4434, 4433, 6073, 6074, 6115, 6114
4206, 4393, 4394, 4435, 4434, 6074, 6075, 6116, 6115
4207, 4394, 4395, 4436, 4435, 6075, 6076, 6117, 6116
4208, 4395, 4396, 4437, 4436, 6076, 6077, 6118, 6117
4209, 4396, 4397, 4438, 4437, 6077, 6078, 6119, 6118
4210, 4397, 4398, 4439, 4438, 6078, 6079, 6120, 6119
4211, 4398, 4399, 4440, 4439, 6079, 6080, 6121, 6120
4212, 4399, 4400, 4441, 4440, 6080, 6081, 6122, 6121
4213, 4400, 4401, 4442, 4441, 6081, 6082, 6123, 6122
4214, 4401, 4402, 4443, 4442, 6082, 6083, 6124, 6123
4215, 4402, 4403, 4444, 4443, 6083, 6084, 6125, 6124
4216, 4403, 4404, 4445, 4444, 6084, 6085, 6126, 6125
4217, 4404, 4405, 4446, 4445, 6085, 6086, 6127, 6126
4218, 4405, 4406, 4447, 4446, 6086, 6087, 6128, 6127
4219, 4406, 4407, 4448, 4447, 6087, 6088, 6129, 6128
4220, 4407, 4408, 4449, 4448, 6088, 6089, 6130, 6129
4221, 4408, 4409, 4450, 4449, 6089, 6090, 6131, 6130
4222, 4409, 4410, 4451, 4450, 6090, 6091, 6132, 6131
4223, 4410, 4411, 4452, 4451, 6091, 6092, 6133, 6132
4224, 4411, 4412, 4453, 4452, 6092, 6093, 6134, 6133
4225, 4412, 4413, 4454, 4453, 6093, 6094, 6135, 6134
4226, 4413, 4414, 4455, 4454, 6094, 6095, 6136, 6135
4227, 4414, 4415, 4456, 4455, 6095, 6096, 6137, 6136
4228, 4415, 4416, 4457, 4456, 6096, 6097, 6138, 6137
4229, 4416, 4417, 4458, 4457, 6097, 6098, 6139, 6138
4230, 4417, 4418, 4459, 4458, 6098, 6099, 6140, 6139
4231, 4418, 4419, 4460, 4459, 6099, 6100, 6141, 6140
4232, 4419, 4420, 4461, 4460, 6100, 6101, 6142, 6141
4233, 4420, 4421, 4462, 4461, 6101, 6102, 6143, 6142
4234, 4421, 4422, 4463, 4462, 6102, 6103, 6144, 6143
4235, 4422, 4423, 4464, 4463, 6103, 6104, 6145, 6144
4236, 4423, 4424, 4465, 4464, 6104, 6105, 6146, 6145
4237, 4424, 4425, 4466, 4465, 6105, 6106, 6147, 6146
4238, 4425, 4426, 4467, 4466, 6106, 6107, 6148, 6147
4239, 4426, 4427, 4468, 4467, 6107, 6108, 6149, 6148
4240, 4427, 4428, 4469, 4468, 6108, 6109, 6150, 6149
4241, 4429, 4430, 4471, 4470, 6110, 6111, 6152, 6151
4242, 4430, 4431, 4472, 4471, 6111, 6112, 6153, 6152
4243, 4431, 4432, 4473, 4472, 6112, 6113, 6154, 6153
4244, 4432, 4433, 4474, 4473, 6113, 6114, 6155, 6154
4245, 4433, 4434, 4475, 4474, 6114, 6115, 6156, 6155
4246, 4434, 4435, 4476, 4475, 6115, 6116, 6157, 6156
4247, 4435, 4436, 4477, 4476, 6116, 6117, 6158, 6157
4248, 4436, 4437, 4478, 4477, 6117, 6118, 6159, 6158
4249, 4437, 4438, 4479, 4478, 6118, 6119, 6160, 6159
4250, 4438, 4439, 4480, 4479, 6119, 6120, 6161, 6160
4251, 4439, 4440, 4481, 4480, 6120, 6121, 6162, 6161
4252, 4440, 4441, 4482, 4481, 6121, 6122, 6163, 6162
4253, 4441, 4442, 4483, 4482, 6122, 6123, 6164, 6163
4254, 4442, 4443, 4484, 4483, 6123, 6124, 6165, 6164
4255, 4443, 4444, 4485, 4484, 6124, 6125, 6166, 6165
4256, 4444, 4445, 4486, 4485, 6125, 6126, 6167, 6166
4257, 4445, 4446, 4487, 4486, 6126, 6127, 6168, 6167
4258, 4446, 4447, 4488, 4487, 6127, 6128, 6169, 6168
4259, 4447, 4448, 4489, 4488, 6128, 6129, 6170, 6169
4260, 4448, 4449, 4490, 4489, 6129, 6130, 6171, 6170
4261, 4449, 4450, 4491, 4490, 6130, 6131, 6172, 6171
4262, 4450, 4451, 4492, 4491, 6131, 6132, 6173, 6172
4263, 4451, 4452, 4493, 4492, 6132, 6133, 6174, 6173
4264, 4452, 4453, 4494, 4493, 6133, 6134, 6175, 6174
4265, 4453, 4454, 4495, 4494, 6134, 6135, 6176, 6175
4266, 4454, 4455, 4496, 4495, 6135, 6136, 6177, 6176
4267, 4455, 4456, 4497, 4496, 6136, 6137, 6178, 6177
4268, 4456, 4457, 4498, 4497, 6137, 6138, 6179, 6178
4269, 4457, 4458, 4499, 4498, 6138, 6139, 6180, 6179
4270, 4458, 4459, 4500, 4499, 6139, 6140, 6181, 6180
4271, 4459, 4460, 4501, 4500, 6140, 6141, 6182, 6181
4272, 4460, 4461, 4502, 4501, 6141, 6142, 6183, 6182
4273, 4461, 4462, 4503, 4502, 6142, 6143, 6184, 6183
4274, 4462, 4463, 4504, 4503, 6143, 6144, 6185, 6184
4275, 4463, 4464, 4505, 4504, 6144, 6145, 6186, 6185
4276, 4464, 4465, 4506, 4505, 6145, 6146, 6187, 6186
4277, 4465, 4466, 4507, 4506, 6146, 6147, 6188, 6187
4278, 4466, 4467, 4508, 4507, 6147, 6148, 6189, 6188
4279, 4467, 4468, 4509, 4508, 6148, 6149, 6190, 6189
4280, 4468, 4469, 4510, 4509, 6149, 6150, 6191, 6190
4281, 4470, 4471, 4512, 4511, 6151, 6152, 6193, 6192
4282, 4471, 4472, 4513, 4512, 6152, 6153, 6194, 6193
4283, 4472, 4473, 4514, 4513, 6153, 6154, 6195, 6194
4284, 4473, 4474, 4515, 4514, 6154, 6155, 6196, 6195
4285, 4474, 4475, 4516, 4515, 6155, 6156, 6197, 6196
4286, 4475, 4476, 4517, 4516, 6156, 6157, 6198, 6197
4287, 4476, 4477, 4518, 4517, 6157, 6158, 6199, 6198
4288, 4477, 4478, 4519, 4518, 6158, 6159, 6200, 6199
4289, 4478, 4479, 4520, 4519, 6159, 6160, 6201, 6200
4290, 4479, 4480, 4521, 4520, 6160, 6161, 6202, 6201
4291, 4480, 4481, 4522, 4521, 6161, 6162, 6203, 6202
4292, 4481, 4482, 4523, 4522, 6162, 6163, 6204, 6203
4293, 4482, 4483, 4524, 4523, 6163, 6164, 6205, 6204
4294, 4483, 4484, 4525, 4524, 6164, 6165, 6206, 6205
4295, 4484, 4485, 4526, 4525, 6165, 6166, 6207, 6206
4296, 4485, 4486, 4527, 4526, 6166, 6167, 6208, 6207
4297, 4486, 4487, 4528, 4527, 6167, 6168, 6209, 6208
4298, 4487, 4488, 4529, 4528, 6168, 6169, 6210, 6209
4299, 4488, 4489, 4530, 4529, 6169, 6170, 6211, 6210
4300, 4489, 4490, 4531, 4530, 6170, 6171, 6212, 6211
4301, 4490, 4491, 4532, 4531, 6171, 6172, 6213, 6212
4302, 4491, 4492, 4533, 4532, 6172, 6173, 6214, 6213
4303, 4492, 4493, 4534, 4533, 6173, 6174, 6215, 6214
4304, 4493, 4494, 4535, 4534, 6174, 6175, 6216, 6215
4305, 4494, 4495, 4536, 4535, 6175, 6176, 6217, 6216
4306, 4495, 4496, 4537, 4536, 6176, 6177, 6218, 6217
4307, 4496, 4497, 4538, 4537, 6177, 6178, 6219, 6218
4308, 4497, 4498, 4539, 4538, 6178, 6179, 6220, 6219
4309, 4498, 4499, 4540, 4539, 6179, 6180, 6221, 6220
4310, 4499, 4500, 4541, 4540, 6180, 6181, 6222, 6221
4311, 4500, 4501, 4542, 4541, 6181, 6182, 6223, 6222
4312, 4501, 4502, 4543, 4542, 6182, 6183, 6224, 6223
4313, 4502, 4503, 4544, 4543, 6183, 6184, 6225, 6224
4314, 4503, 4504, 4545, 4544, 6184, 6185, 6226, 6225
4315, 4504, 4505, 4546, 4545, 6185, 6186, 6227, 6226
4316, 4505, 4506, 4547, 4546, 6186, 6187, 6228, 6227
4317, 4506, 4507, 4548, 4547, 6187, 6188, 6229, 6228
4318, 4507, 4508, 4549, 4548, 6188, 6189, 6230, 6229
4319, 4508, 4509, 4550, 4549, 6189, 6190, 6231, 6230
4320, 4509, 4510, 4551, 4550, 6190, 6191, 6232, 6231
4321, 4511, 4512, 4553, 4552, 6192, 6193, 6234, 6233
4322, 4512, 4513, 4554, 4553, 6193, 6194, 6235, 6234
4323, 4513, 4514, 4555, 4554, 6194, 6195, 6236, 6235
4324, 4514, 4515, 4556, 4555, 6195, 6196, 6237, 6236
4325, 4515, 4516, 4557, 4556, 6196, 6197, 6238, 6237
4326, 4516, 4517, 4558, 4557, 6197, 6198, 6239, 6238
4327, 4517, 4518, 4559, 4558, 6198, 6199, 6240, 6239
4328, 4518, 4519, 4560, 4559, 6199, 6200, 6241, 6240
4329, 4519, 4520, 4561, 4560, 6200, 6201, 6242, 6241
4330, 4520, 4521, 4562, 4561, 6201, 6202, 6243, 6242
4331, 4521, 4522, 4563, 4562, 6202, 6203, 6244, 6243
4332, 4522, 4523, 4564, 4563, 6203, 6204, 6245, 6244
4333, 4523, 4524, 4565, 4564, 6204, 6205, 6246, 6245
4334, 4524, 4525, 4566, 4565, 6205, 6206, 6247, 6246
4335, 4525, 4526, 4567, 4566, 6206, 6207, 6248, 6247
4336, 4526, 4527, 4568, 4567, 6207, 6208, 6249, 6248
4337, 4527, 4528, 4569, 4568, 6208, 6209, 6250, 6249
4338, 4528, 4529, 4570, 4569, 6209, 6210, 6251, 6250
4339, 4529, 4530, 4571, 4570, 6210, 6211, 6252, 6251
4340, 4530, 4531, 4572, 4571, 6211, 6212, 6253, 6252
4341, 4531, 4532, 4573, 4572, 6212, 6213, 6254, 6253
4342, 4532, 4533, 4574, 4573, 6213, 6214, 6255, 6254
4343, 4533, 4534, 4575, 4574, 6214, 6215, 6256, 6255
4344, 4534, 4535, 4576, 4575, 6215, 6216, 6257, 6256
4345, 4535, 4536, 4577, 4576, 6216, 6217, 6258, 6257
4346, 4536, 4537, 4578, 4577, 6217, 6218, 6259, 6258
4347, 4537, 4538, 4579, 4578, 6218, 6219, 6260, 6259
4348, 4538, 4539, 4580, 4579, 6219, 6220, 6261, 6260
4349, 4539, 4540, 4581, 4580, 6220, 6221, 6262, 6261
4350, 4540, 4541, 4582, 4581, 6221, 6222, 6263, 6262
4351, 4541, 4542, 4583, 4582, 6222, 6223, 6264, 6263
4352, 4542, 4543, 4584, 4583, 6223, 6224, 6265, 6264
4353, 4543, 4544, 4585, 4584, 6224, 6225, 6266, 6265
4354, 4544, 4545, 4586, 4585, 6225, 6226, 6267, 6266
4355, 4545, 4546, 4587, 4586, 6226, 6227, 6268, 6267
4356, 4546, 4547, 4588, 4587, 6227, 6228, 6269, 6268
4357, 4547, 4548, 4589, 4588, 6228, 6229, 6270, 6269
4358, 4548, 4549, 4590, 4589, 6229, 6230, 6271, 6270
4359, 4549, 4550, 4591, 4590, 6230, 6231, 6272, 6271
4360, 4550, 4551, 4592, 4591, 6231, 6232, 6273, 6272
4361, 4552, 4553, 4594, 4593, 6233, 6234, 6275, 6274
4362, 4553, 4554, 4595, 4594, 6234, 6235, 6276, 6275
4363, 4554, 4555, 4596, 4595, 6235, 6236, 6277, 6276
4364, 4555, 4556, 4597, 4596, 6236, 6237, 6278, 6277
4365, 4556, 4557, 4598, 4597, 6237, 6238, 6279, 6278
4366, 4557, 4558, 4599, 4598, 6238, 6239, 6280, 6279
4367, 4558, 4559, 4600, 4599, 6239, 6240, 6281, 6280
4368, 4559, 4560, 4601, 4600, 6240, 6241, 6282, 6281
4369, 4560, 4561, 4602, 4601, 6241, 6242, 6283, 6282
4370, 4561, 4562, 4603, 4602, 6242, 6243, 6284, 6283
4371, 4562, 4563, 4604, 4603, 6243, 6244, 6285, 6284
4372, 4563, 4564, 4605, 4604, 6244, 6245, 6286, 6285
4373, 4564, 4565, 4606, 4605, 6245, 6246, 6287, 6286
4374, 4565, 4566, 4607, 4606, 6246, 6247, 6288, 6287
4375, 4566, 4567, 4608, 4607, 6247, 6248, 6289, 6288
4376, 4567, 4568, 4609, 4608, 6248, 6249, 6290, 6289
4377, 4568, 4569, 4610, 4609, 6249, 6250, 6291, 6290
4378, 4569, 4570, 4611, 4610, 6250, 6251, 6292, 6291
4379, 4570, 4571, 4612, 4611, 6251, 6252, 6293, 6292
4380, 4571, 4572, 4613, 4612, 6252, 6253, 6294, 6293
4381, 4572, 4573, 4614, 4613, 6253, 6254, 6295, 6294
4382, 4573, 4574, 4615, 4614, 6254, 6255, 6296, 6295
4383, 4574, 4575, 4616, 4615, 6255, 6256, 6297, 6296
4384, 4575, 4576, 4617, 4616, 6256, 6257, 6298, 6297
4385, 4576, 4577, 4618, 4617, 6257, 6258, 6299, 6298
4386, 4577, 4578, 4619, 4618, 6258, 6259, 6300, 6299
4387, 4578, 4579, 4620, 4619, 6259, 6260, 6301, 6300
4388, 4579, 4580, 4621, 4620, 6260, 6261, 6302, 6301
4389, 4580, 4581, 4622, 4621, 6261, 6262, 6303, 6302
4390, 4581, 4582, 4623, 4622, 6262, 6263, 6304, 6303
4391, 4582, 4583, 4624, 4623, 6263, 6264, 6305, 6304
4392, 4583, 4584, 4625, 4624, 6264, 6265, 6306, 6305
4393, 4584, 4585, 4626, 4625, 6265, 6266, 6307, 6306
4394, 4585, 4586, 4627, 4626, 6266, 6267, 6308, 6307
4395, 4586, 4587, 4628, 4627, 6267, 6268, 6309, 6308
4396, 4587, 4588, 4629, 4628, 6268, 6269, 6310, 6309
4397, 4588, 4589, 4630, 4629, 6269, 6270, 6311, 6310
4398, 4589, 4590, 4631, 4630, 6270, 6271, 6312, 6311
4399, 4590, 4591, 4632, 4631, 6271, 6272, 6313, 6312
4400, 4591, 4592, 4633, 4632, 6272, 6273, 6314, 6313
4401, 4593, 4594, 4635, 4634, 6274, 6275, 6316, 6315
4402, 4594, 4595, 4636, 4635, 6275, 6276, 6317, 6316
4403, 4595, 4596, 4637, 4636, 6276, 6277, 6318, 6317
4404, 4596, 4597, 4638, 4637, 6277, 6278, 6319, 6318
4405, 4597, 4598, 4639, 4638, 6278, 6279, 6320, 6319
4406, 4598, 4599, 4640, 4639, 6279, 6280, 6321, 6320
4407, 4599, 4600, 4641, 4640, 6280, 6281, 6322, 6321
4408, 4600, 4601, 4642, 4641, 6281, 6282, 6323, 6322
4409, 4601, 4602, 4643, 4642, 6282, 6283, 6324, 6323
4410, 4602, 4603, 4644, 4643, 6283, 6284, 6325, 6324
4411, 4603, 4604, 4645, 4644, 6284, 6285, 6326, 6325
4412, 4604, 4605, 4646, 4645, 6285, 6286, 6327, 6326
4413, 4605, 4606, 4647, 4646, 6286, 6287, 6328, 6327
4414, 4606, 4607, 4648, 4647, 6287, 6288, 6329, 6328
4415, 4607, 4608, 4649, 4648, 6288, 6289, 6330, 6329
4416, 4608, 4609, 4650, 4649, 6289, 6290, 6331, 6330
4417, 4609, 4610, 4651, 4650, 6290, 6291, 6332, 6331
4418, 4610, 4611, 4652, 4651, 6291, 6292, 6333, 6332
4419, 4611, 4612, 4653, 4652, 6292, 6293, 6334, 6333
4420, 4612, 4613, 4654, 4653, 6293, 6294, 6335, 6334
4421, 4613, 4614, 4655, 4654, 6294, 6295, 6336, 6335
4422, 4614, 4615, 4656, 4655, 6295, 6296, 6337, 6336
4423, 4615, 4616, 4657, 4656, 6296, 6297, 6338, 6337
4424, 4616, 4617, 4658, 4657, 6297, 6298, 6339, 6338
4425, 4617, 4618, 4659, 4658, 6298, 6299, 6340, 6339
4426, 4618, 4619, 4660, 4659, 6299, 6300, 6341, 6340
4427, 4619, 4620, 4661, 4660, 6300, 6301, 6342, 6341
4428, 4620, 4621, 4662, 4661, 6301, 6302, 6343, 6342
4429, 4621, 4622, 4663, 4662, 6302, 6303, 6344, 6343
4430, 4622, 4623, 4664, 4663, 6303, 6304, 6345, 6344
4431, 4623, 4624, 4665, 4664, 6304, 6305, 6346, 6345
4432, 4624, 4625, 4666, 4665, 6305, 6306, 6347, 6346
4433, 4625, 4626, 4667, 4666, 6306, 6307, 6348, 6347
4434, 4626, 4627, 4668, 4667, 6307, 6308, 6349, 6348
4435, 4627, 4628, 4669, 4668, 6308, 6309, 6350, 6349
4436, 4628, 4629, 4670, 4669, 6309, 6310, 6351, 6350
4437, 4629, 4630, 4671, 4670, 6310, 6311, 6352, 6351
4438, 4630, 4631, 4672, 4671, 6311, 6312, 6353, 6352
4439, 4631, 4632, 4673, 4672, 6312, 6313, 6354, 6353
4440, 4632, 4633, 4674, 4673, 6313, 6314, 6355, 6354
4441, 4634, 4635, 4676, 4675, 6315, 6316, 6357, 6356
4442, 4635, 4636, 4677, 4676, 6316, 6317, 6358, 6357
4443, 4636, 4637, 4678, 4677, 6317, 6318, 6359, 6358
4444, 4637, 4638, 4679, 4678, 6318, 6319, 6360, 6359
4445, 4638, 4639, 4680, 4679, 6319, 6320, 6361, 6360
4446, 4639, 4640, 4681, 4680, 6320, 6321, 6362, 6361
4447, 4640, 4641, 4682, 4681, 6321, 6322, 6363, 6362
4448, 4641, 4642, 4683, 4682, 6322, 6323, 6364, 6363
4449, 4642, 4643, 4684, 4683, 6323, 6324, 6365, 6364
4450, 4643, 4644, 4685, 4684, 6324, 6325, 6366, 6365
4451, 4644, 4645, 4686, 4685, 6325, 6326, 6367, 6366
4452, 4645, 4646, 4687, 4686, 6326, 6327, 6368, 6367
4453, 4646, 4647, 4688, 4687, 6327, 6328, 6369, 6368
4454, 4647, 4648, 4689, 4688, 6328, 6329, 6370, 6369
4455, 4648, 4649, 4690, 4689, 6329, 6330, 6371, 6370
4456, 4649, 4650, 4691, 4690, 6330, 6331, 6372, 6371
4457, 4650, 4651, 4692, 4691, 6331, 6332, 6373, 6372
4458, 4651, 4652, 4693, 4692, 6332, 6333, 6374, 6373
4459, 4652, 4653, 4694, 4693, 6333, 6334, 6375, 6374
4460, 4653, 4654, 4695, 4694, 6334, 6335, 6376, 6375
4461, 4654, 4655, 4696, 4695, 6335, 6336, 6377, 6376
4462, 4655, 4656, 4697, 4696, 6336, 6337, 6378, 6377
4463, 4656, 4657, 4698, 4697, 6337, 6338, 6379, 6378
4464, 4657, 4658, 4699, 4698, 6338, 6339, 6380, 6379
4465, 4658, 4659, 4700, 4699, 6339, 6340, 6381, 6380
4466, 4659, 4660, 4701, 4700, 6340, 6341, 6382, 6381
4467, 4660, 4661, 4702, 4701, 6341, 6342, 6383, 6382
4468, 4661, 4662, 4703, 4702, 6342, 6343, 6384, 6383
4469, 4662, 4663, 4704, 4703, 6343, 6344, 6385, 6384
4470, 4663, 4664, 4705, 4704, 6344, 6345, 6386, 6385
4471, 4664, 4665, 4706, 4705, 6345, 6346, 6387, 6386
4472, 4665, 4666, 4707, 4706, 6346, 6347, 6388, 6387
4473, 4666, 4667, 4708, 4707, 6347, 6348, 6389, 6388
4474, 4667, 4668, 4709, 4708, 6348, 6349, 6390, 6389
4475, 4668, 4669, 4710, 4709, 6349, 6350, 6391, 6390
4476, 4669, 4670, 4711, 4710, 6350, 6351, 6392, 6391
4477, 4670, 4671, 4712, 4711, 6351, 6352, 6393, 6392
4478, 4671, 4672, 4713, 4712, 6352, 6353, 6394, 6393
4479, 4672, 4673, 4714, 4713, 6353, 6354, 6395, 6394
4480, 4673, 4674, 4715, 4714, 6354, 6355, 6396, 6395
4481, 4675, 4676, 4717, 4716, 6356, 6357, 6398, 6397
4482, 4676, 4677, 4718, 4717, 6357, 6358, 6399, 6398
4483, 4677, 4678, 4719, 4718, 6358, 6359, 6400, 6399
4484, 4678, 4679, 4720, 4719, 6359, 6360, 6401, 6400
4485, 4679, 4680, 4721, 4720, 6360, 6361, 6402, 6401
4486, 4680, 4681, 4722, 4721, 6361, 6362, 6403, 6402
4487, 4681, 4682, 4723, 4722, 6362, 6363, 6404, 6403
4488, 4682, 4683, 4724, 4723, 6363, 6364, 6405, 6404
4489, 4683, 4684, 4725, 4724, 6364, 6365, 6406, 6405
4490, 4684, 4685, 4726, 4725, 6365, 6366, 6407, 6406
4491, 4685, 4686, 4727, 4726, 6366, 6367, 6408, 6407
4492, 4686, 4687, 4728, 4727, 6367, 6368, 6409, 6408
4493, 4687, 4688, 4729, 4728, 6368, 6369, 6410, 6409
4494, 4688, 4689, 4730, 4729, 6369, 6370, 6411, 6410
4495, 4689, 4690, 4731, 4730, 6370, 6371, 6412, 6411
4496, 4690, 4691, 4732, 4731, 6371, 6372, 6413, 6412
4497, 4691, 4692, 4733, 4732, 6372, 6373, 6414, 6413
4498, 4692, 4693, 4734, 4733, 6373, 6374, 6415, 6414
4499, 4693, 4694, 4735, 4734, 6374, 6375, 6416, 6415
4500, 4694, 4695, 4736, 4735, 6375, 6376, 6417, 6416
4501, 4695, 4696, 4737, 4736, 6376, 6377, 6418, 6417
4502, 4696, 4697, 4738, 4737, 6377, 6378, 6419, 6418
4503, 4697, 4698, 4739, 4738, 6378, 6379, 6420, 6419
4504, 4698, 4699, 4740, 4739, 6379, 6380, 6421, 6420
4505, 4699, 4700, 4741, 4740, 6380, 6381, 6422, 6421
4506, 4700, 4701, 4742, 4741, 6381, 6382, 6423, 6422
4507, 4701, 4702, 4743, 4742, 6382, 6383, 6424, 6423
4508, 4702, 4703, 4744, 4743, 6383, 6384, 6425, 6424
4509, 4703, 4704, 4745, 4744, 6384, 6385, 6426, 6425
4510, 4704, 4705, 4746, 4745, 6385, 6386, 6427, 6426
4511, 4705, 4706, 4747, 4746, 6386, 6387, 6428, 6427
4512, 4706, 4707, 4748, 4747, 6387, 6388, 6429, 6428
4513, 4707, 4708, 4749, 4748, 6388, 6389, 6430, 6429
4514, 4708, 4709, 4750, 4749, 6389, 6390, 6431, 6430
4515, 4709, 4710, 4751, 4750, 6390, 6391, 6432, 6431
4516, 4710, 4711, 4752, 4751, 6391, 6392, 6433, 6432
4517, 4711, 4712, 4753, 4752, 6392, 6393, 6434, 6433
4518, 4712, 4713, 4754, 4753, 6393, 6394, 6435, 6434
4519, 4713, 4714, 4755, 4754, 6394, 6395, 6436, 6435
4520, 4714, 4715, 4756, 4755, 6395, 6396, 6437, 6436
4521, 4716, 4717, 4758, 4757, 6397, 6398, 6439, 6438
4522, 4717, 4718, 4759, 4758, 6398, 6399, 6440, 6439
4523, 4718, 4719, 4760, 4759, 6399, 6400, 6441, 6440
4524, 4719, 4720, 4761, 4760, 6400, 6401, 6442, 6441
4525, 4720, 4721, 4762, 4761, 6401, 6402, 6443, 6442
4526, 4721, 4722, 4763, 4762, 6402, 6403, 6444, 6443
4527, 4722, 4723, 4764, 4763, 6403, 6404, 6445, 6444
4528, 4723, 4724, 4765, 4764, 6404, 6405, 6446, 6445
4529, 4724, 4725, 4766, 4765, 6405, 6406, 6447, 6446
4530, 4725, 4726, 4767, 4766, 6406, 6407, 6448, 6447
4531, 4726, 4727, 4768, 4767, 6407, 6408, 6449, 6448
4532, 4727, 4728, 4769, 4768, 6408, 6409, 6450, 6449
4533, 4728, 4729, 4770, 4769, 6409, 6410, 6451, 6450
4534, 4729, 4730, 4771, 4770, 6410, 6411, 6452, 6451
4535, 4730, 4731, 4772, 4771, 6411, 6412, 6453, 6452
4536, 4731, 4732, 4773, 4772, 6412, 6413, 6454, 6453
4537, 4732, 4733, 4774, 4773, 6413, 6414, 6455, 6454
4538, 4733, 4734, 4775, 4774, 6414, 6415, 6456, 6455
4539, 4734, 4735, 4776, 4775, 6415, 6416, 6457, 6456
4540, 4735, 4736, 4777, 4776, 6416, 6417, 6458, 6457
4541, 4736, 4737, 4778, 4777, 6417, 6418, 6459, 6458
4542, 4737, 4738, 4779, 4778, 6418, 6419, 6460, 6459
4543, 4738, 4739, 4780, 4779, 6419, 6420, 6461, 6460
4544, 4739, 4740, 4781, 4780, 6420, 6421, 6462, 6461
4545, 4740, 4741, 4782, 4781, 6421, 6422, 6463, 6462
4546, 4741, 4742, 4783, 4782, 6422, 6423, 6464, 6463
4547, 4742, 4743, 4784, 4783, 6423, 6424, 6465, 6464
4548, 4743, 4744, 4785, 4784, 6424, 6425, 6466, 6465
4549, 4744, 4745, 4786, 4785, 6425, 6426, 6467, 6466
4550, 4745, 4746, 4787, 4786, 6426, 6427, 6468, 6467
4551, 4746, 4747, 4788, 4787, 6427, 6428, 6469, 6468
4552, 4747, 4748, 4789, 4788, 6428, 6429, 6470, 6469
4553, 4748, 4749, 4790, 4789, 6429, 6430, 6471, 6470
4554, 4749, 4750, 4791, 4790, 6430, 6431, 6472, 6471
4555, 4750, 4751, 4792, 4791, 6431, 6432, 6473, 6472
4556, 4751, 4752, 4793, 4792, 6432, 6433, 6474, 6473
4557, 4752, 4753, 4794, 4793, 6433, 6434, 6475, 6474
4558, 4753, 4754, 4795, 4794, 6434, 6435, 6476, 6475
4559, 4754, 4755, 4796, 4795, 6435, 6436, 6477, 6476
4560, 4755, 4756, 4797, 4796, 6436, 6437, 6478, 6477
4561, 4757, 4758, 4799, 4798, 6438, 6439, 6480, 6479
4562, 4758, 4759, 4800, 4799, 6439, 6440, 6481, 6480
4563, 4759, 4760, 4801, 4800, 6440, 6441, 6482, 6481
4564, 4760, 4761, 4802, 4801, 6441, 6442, 6483, 6482
4565, 4761, 4762, 4803, 4802, 6442, 6443, 6484, 6483
4566, 4762, 4763, 4804, 4803, 6443, 6444, 6485, 6484
4567, 4763, 4764, 4805, 4804, 6444, 6445, 6486, 6485
4568, 4764, 4765, 4806, 4805, 6445, 6446, 6487, 6486
4569, 4765, 4766, 4807, 4806, 6446, 6447, 6488, 6487
4570, 4766, 4767, 4808, 4807, 6447, 6448, 6489, 6488
4571, 4767, 4768, 4809, 4808, 6448, 6449, 6490, 6489
4572, 4768, 4769, 4810, 4809, 6449, 6450, 6491, 6490
4573, 4769, 4770, 4811, 4810, 6450, 6451, 6492, 6491
4574, 4770, 4771, 4812, 4811, 6451, 6452, 6493, 6492
4575, 4771, 4772, 4813, 4812, 6452, 6453, 6494, 6493
4576, 4772, 4773, 4814, 4813, 6453, 6454, 6495, 6494
4577, 4773, 4774, 4815, 4814, 6454, 6455, 6496, 6495
4578, 4774, 4775, 4816, 4815, 6455, 6456, 6497, 6496
4579, 4775, 4776, 4817, 4816, 6456, 6457, 6498, 6497
4580, 4776, 4777, 4818, 4817, 6457, 6458, 6499, 6498
4581, 4777, 4778, 4819, 4818, 6458, 6459, 6500, 6499
4582, 4778, 4779, 4820, 4819, 6459, 6460, 6501, 6500
4583, 4779, 4780, 4821, 4820, 6460, 6461, 6502, 6501
4584, 4780, 4781, 4822, 4821, 6461, 6462, 6503, 6502
4585, 4781, 4782, 4823, 4822, 6462, 6463, 6504, 6503
4586, 4782, 4783, 4824, 4823, 6463, 6464, 6505, 6504
4587, 4783, 4784, 4825, 4824, 6464, 6465, 6506, 6505
4588, 4784, 4785, 4826, 4825, 6465, 6466, 6507, 6506
4589, 4785, 4786, 4827, 4826, 6466, 6467, 6508, 6507
4590, 4786, 4787, 4828, 4827, 6467, 6468, 6509, 6508
4591, 4787, 4788, 4829, 4828, 6468, 6469, 6510, 6509
4592, 4788, 4789, 4830, 4829, 6469, 6470, 6511, 6510
4593, 4789, 4790, 4831, 4830, 6470, 6471, 6512, 6511
4594, 4790, 4791, 4832, 4831, 6471, 6472, 6513, 6512
4595, 4791, 4792, 4833, 4832, 6472, 6473, 6514, 6513
4596, 4792, 4793, 4834, 4833, 6473, 6474, 6515, 6514
4597, 4793, 4794, 4835, 4834, 6474, 6475, 6516, 6515
4598, 4794, 4795, 4836, 4835, 6475, 6476, 6517, 6516
4599, 4795, 4796, 4837, 4836, 6476, 6477, 6518, 6517
4600, 4796, 4797, 4838, 4837, 6477, 6478, 6519, 6518
4601, 4798, 4799, 4840, 4839, 6479, 6480, 6521, 6520
4602, 4799, 4800, 4841, 4840, 6480, 6481, 6522, 6521
4603, 4800, 4801, 4842, 4841, 6481, 6482, 6523, 6522
4604, 4801, 4802, 4843, 4842, 6482, 6483, 6524, 6523
4605, 4802, 4803, 4844, 4843, 6483, 6484, 6525, 6524
4606, 4803, 4804, 4845, 4844, 6484, 6485, 6526, 6525
4607, 4804, 4805, 4846, 4845, 6485, 6486, 6527, 6526
4608, 4805, 4806, 4847, 4846, 6486, 6487, 6528, 6527
4609, 4806, 4807, 4848, 4847, 6487, 6488, 6529, 6528
4610, 4807, 4808, 4849, 4848, 6488, 6489, 6530, 6529
4611, 4808, 4809, 4850, 4849, 6489, 6490, 6531, 6530
4612, 4809, 4810, 4851, 4850, 6490, 6491, 6532, 6531
4613, 4810, 4811, 4852, 4851, 6491, 6492, 6533, 6532
4614, 4811, 4812, 4853, 4852, 6492, 6493, 6534, 6533
4615, 4812, 4813, 4854, 4853, 6493, 6494, 6535, 6534
4616, 4813, 4814, 4855, 4854, 6494, 6495, 6536, 6535
4617, 4814, 4815, 4856, 4855, 6495, 6496, 6537, 6536
4618, 4815, 4816, 4857, 4856, 6496, 6497, 6538, 6537
4619, 4816, 4817, 4858, 4857, 6497, 6498, 6539, 6538
4620, 4817, 4818, 4859, 4858, 6498, 6499, 6540, 6539
4621, 4818, 4819, 4860, 4859, 6499, 6500, 6541, 6540
4622, 4819, 4820, 4861, 4860, 6500, 6501, 6542, 6541
4623, 4820, 4821, 4862, 4861, 6501, 6502, 6543, 6542
4624, 4821, 4822, 4863, 4862, 6502, 6503, 6544, 6543
4625, 4822, 4823, 4864, 4863, 6503, 6504, 6545, 6544
4626, 4823, 4824, 4865, 4864, 6504, 6505, 6546, 6545
4627, 4824, 4825, 4866, 4865, 6505, 6506, 6547, 6546
4628, 4825, 4826, 4867, 4866, 6506, 6507, 6548, 6547
4629, 4826, 4827, 4868, 4867, 6507, 6508, 6549, 6548
4630, 4827, 4828, 4869, 4868, 6508, 6509, 6550, 6549
4631, 4828, 4829, 4870, 4869, 6509, 6510, 6551, 6550
4632, 4829, 4830, 4871, 4870, 6510, 6511, 6552, 6551
4633, 4830, 4831, 4872, 4871, 6511, 6512, 6553, 6552
4634, 4831, 4832, 4873, 4872, 6512, 6513, 6554, 6553
4635, 4832, 4833, 4874, 4873, 6513, 6514, 6555, 6554
4636, 4833, 4834, 4875, 4874, 6514, 6515, 6556, 6555
4637, 4834, 4835, 4876, 4875, 6515, 6516, 6557, 6556
4638, 4835, 4836, 4877, 4876, 6516, 6517, 6558, 6557
4639, 4836, 4837, 4878, 4877, 6517, 6518, 6559, 6558
4640, 4837, 4838, 4879, 4878, 6518, 6519, 6560, 6559
4641, 4839, 4840, 4881, 4880, 6520, 6521, 6562, 6561
4642, 4840, 4841, 4882, 4881, 6521, 6522, 6563, 6562
4643, 4841, 4842, 4883, 4882, 6522, 6523, 6564, 6563
4644, 4842, 4843, 4884, 4883, 6523, 6524, 6565, 6564
4645, 4843, 4844, 4885, 4884, 6524, 6525, 6566, 6565
4646, 4844, 4845, 4886, 4885, 6525, 6526, 6567, 6566
4647, 4845, 4846, 4887, 4886, 6526, 6527, 6568, 6567
4648, 4846, 4847, 4888, 4887, 6527, 6528, 6569, 6568
4649, 4847, 4848, 4889, 4888, 6528, 6529, 6570, 6569
4650, 4848, 4849, 4890, 4889, 6529, 6530, 6571, 6570
4651, 4849, 4850, 4891, 4890, 6530, 6531, 6572, 6571
4652, 4850, 4851, 4892, 4891, 6531, 6532, 6573, 6572
4653, 4851, 4852, 4893, 4892, 6532, 6533, 6574, 6573
4654, 4852, 4853, 4894, 4893, 6533, 6534, 6575, 6574
4655, 4853, 4854, 4895, 4894, 6534, 6535, 6576, 6575
4656, 4854, 4855, 4896, 4895, 6535, 6536, 6577, 6576
4657, 4855, 4856, 4897, 4896, 6536, 6537, 6578, 6577
4658, 4856, 4857, 4898, 4897, 6537, 6538, 6579, 6578
4659, 4857, 4858, 4899, 4898, 6538, 6539, 6580, 6579
4660, 4858, 4859, 4900, 4899, 6539, 6540, 6581, 6580
4661, 4859, 4860, 4901, 4900, 6540, 6541, 6582, 6581
4662, 4860, 4861, 4902, 4901, 6541, 6542, 6583, 6582
4663, 4861, 4862, 4903, 4902, 6542, 6543, 6584, 6583
4664, 4862, 4863, 4904, 4903, 6543, 6544, 6585, 6584
4665, 4863, 4864, 4905, 4904, 6544, 6545, 6586, 6585
4666, 4864, 4865, 4906, 4905, 6545, 6546, 6587, 6586
4667, 4865, 4866, 4907, 4906, 6546, 6547, 6588, 6587
4668, 4866, 4867, 4908, 4907, 6547, 6548, 6589, 6588
4669, 4867, 4868, 4909, 4908, 6548, 6549, 6590, 6589
4670, 4868, 4869, 4910, 4909, 6549, 6550, 6591, 6590
4671, 4869, 4870, 4911, 4910, 6550, 6551, 6592, 6591
4672, 4870, 4871, 4912, 4911, 6551, 6552, 6593, 6592
4673, 4871, 4872, 4913, 4912, 6552, 6553, 6594, 6593
4674, 4872, 4873, 4914, 4913, 6553, 6554, 6595, 6594
4675, 4873, 4874, 4915, 4914, 6554, 6555, 6596, 6595
4676, 4874, 4875, 4916, 4915, 6555, 6556, 6597, 6596
4677, 4875, 4876, 4917, 4916, 6556, 6557, 6598, 6597
4678, 4876, 4877, 4918, 4917, 6557, 6558, 6599, 6598
4679, 4877, 4878, 4919, 4918, 6558, 6559, 6600, 6599
4680, 4878, 4879, 4920, 4919, 6559, 6560, 6601, 6600
4681, 4880, 4881, 4922, 4921, 6561, 6562, 6603, 6602
4682, 4881, 4882, 4923, 4922, 6562, 6563, 6604, 6603
4683, 4882, 4883, 4924, 4923, 6563, 6564, 6605, 6604
4684, 4883, 4884, 4925, 4924, 6564, 6565, 6606, 6605
4685, 4884, 4885, 4926, 4925, 6565, 6566, 6607, 6606
4686, 4885, 4886, 4927, 4926, 6566, 6567, 6608, 6607
4687, 4886, 4887, 4928, 4927, 6567, 6568, 6609, 6608
4688, 4887, 4888, 4929, 4928, 6568, 6569, 6610, 6609
4689, 4888, 4889, 4930, 4929, 6569, 6570, 6611, 6610
4690, 4889, 4890, 4931, 4930, 6570, 6571, 6612, 6611
4691, 4890, 4891, 4932, 4931, 6571, 6572, 6613, 6612
4692, 4891, 4892, 4933, 4932, 6572, 6573, 6614, 6613
4693, 4892, 4893, 4934, 4933, 6573, 6574, 6615, 6614
4694, 4893, 4894, 4935, 4934, 6574, 6575, 6616, 6615
4695, 4894, 4895, 4936, 4935, 6575, 6576, 6617, 6616
4696, 4895, 4896, 4937, 4936, 6576, 6577, 6618, 6617
4697, 4896, 4897, 4938, 4937, 6577, 6578, 6619, 6618
4698, 4897, 4898, 4939, 4938, 6578, 6579, 6620, 6619
4699, 4898, 4899, 4940, 4939, 6579, 6580, 6621, 6620
4700, 4899, 4900, 4941, 4940, 6580, 6581, 6622, 6621
4701, 4900, 4901, 4942, 4941, 6581, 6582, 6623, 6622
4702, 4901, 4902, 4943, 4942, 6582, 6583, 6624, 6623
4703, 4902, 4903, 4944, 4943, 6583, 6584, 6625, 6624
4704, 4903, 4904, 4945, 4944, 6584, 6585, 6626, 6625
4705, 4904, 4905, 4946, 4945, 6585, 6586, 6627, 6626
4706, 4905, 4906, 4947, 4946, 6586, 6587, 6628, 6627
4707, 4906, 4907, 4948, 4947, 6587, 6588, 6629, 6628
4708, 4907, 4908, 4949, 4948, 6588, 6589, 6630, 6629
4709, 4908, 4909, 4950, 4949, 6589, 6590, 6631, 6630
4710, 4909, 4910, 4951, 4950, 6590, 6591, 6632, 6631
4711, 4910, 4911, 4952, 4951, 6591, 6592, 6633, 6632
4712, 4911, 4912, 4953, 4952, 6592, 6593, 6634, 6633
4713, 4912, 4913, 4954, 4953, 6593, 6594, 6635, 6634
4714, 4913, 4914, 4955, 4954, 6594, 6595, 6636, 6635
4715, 4914, 4915, 4956, 4955, 6595, 6596, 6637, 6636
4716, 4915, 4916, 4957, 4956, 6596, 6597, 6638, 6637
4717, 4916, 4917, 4958, 4957, 6597, 6598, 6639, 6638
4718, 4917, 4918, 4959, 4958, 6598, 6599, 6640, 6639
4719, 4918, 4919, 4960, 4959, 6599, 6600, 6641, 6640
4720, 4919, 4920, 4961, 4960, 6600, 6601, 6642, 6641
4721, 4921, 4922, 4963, 4962, 6602, 6603, 6644, 6643
4722, 4922, 4923, 4964, 4963, 6603, 6604, 6645, 6644
4723, 4923, 4924, 4965, 4964, 6604, 6605, 6646, 6645
4724, 4924, 4925, 4966, 4965, 6605, 6606, 6647, 6646
4725, 4925, 4926, 4967, 4966, 6606, 6607, 6648, 6647
4726, 4926, 4927, 4968, 4967, 6607, 6608, 6649, 6648
4727, 4927, 4928, 4969, 4968, 6608, 6609, 6650, 6649
4728, 4928, 4929, 4970, 4969, 6609, 6610, 6651, 6650
4729, 4929, 4930, 4971, 4970, 6610, 6611, 6652, 6651
4730, 4930, 4931, 4972, 4971, 6611, 6612, 6653, 6652
4731, 4931, 4932, 4973, 4972, 6612, 6613, 6654, 6653
4732, 4932, 4933, 4974, 4973, 6613, 6614, 6655, 6654
4733, 4933, 4934, 4975, 4974, 6614, 6615, 6656, 6655
4734, 4934, 4935, 4976, 4975, 6615, 6616, 6657, 6656
4735, 4935, 4936, 4977, 4976, 6616, 6617, 6658, 6657
4736, 4936, 4937, 4978, 4977, 6617, 6618, 6659, 6658
4737, 4937, 4938, 4979, 4978, 6618, 6619, 6660, 6659
4738, 4938, 4939, 4980, 4979, 6619, 6620, 6661, 6660
4739, 4939, 4940, 4981, 4980, 6620, 6621, 6662, 6661
4740, 4940, 4941, 4982, 4981, 6621, 6622, 6663, 6662
4741, 4941, 4942, 4983, 4982, 6622, 6623, 6664, 6663
4742, 4942, 4943, 4984, 4983, 6623, 6624, 6665, 6664
4743, 4943, 4944, 4985, 4984, 6624, 6625, 6666, 6665
4744, 4944, 4945, 4986, 4985, 6625, 6626, 6667, 6666
4745, 4945, 4946, 4987, 4986, 6626, 6627, 6668, 6667
4746, 4946, 4947, 4988, 4987, 6627, 6628, 6669, 6668
4747, 4947, 4948, 4989, 4988, 6628, 6629, 6670, 6669
4748, 4948, 4949, 4990, 4989, 6629, 6630, 6671, 6670
4749, 4949, 4950, 4991, 4990, 6630, 6631, 6672, 6671
4750, 4950, 4951, 4992, 4991, 6631, 6632, 6673, 6672
4751, 4951, 4952, 4993, 4992, 6632, 6633, 6674, 6673
4752, 4952, 4953, 4994, 4993, 6633, 6634, 6675, 6674
4753, 4953, 4954, 4995, 4994, 6634, 6635, 6676, 6675
4754, 4954, 4955, 4996, 4995, 6635, 6636, 6677, 6676
4755, 4955, 4956, 4997, 4996, 6636, 6637, 6678, 6677
4756, 4956, 4957, 4998, 4997, 6637, 6638, 6679, 6678
4757, 4957, 4958, 4999, 4998, 6638, 6639, 6680, 6679
4758, 4958, 4959, 5000, 4999, 6639, 6640, 6681, 6680
4759, 4959, 4960, 5001, 5000, 6640, 6641, 6682, 6681
4760, 4960, 4961, 5002, 5001, 6641, 6642, 6683, 6682
4761, 4962, 4963, 5004, 5003, 6643, 6644, 6685, 6684
4762, 4963, 4964, 5005, 5004, 6644, 6645, 6686, 6685
4763, 4964, 4965, 5006, 5005, 6645, 6646, 6687, 6686
4764, 4965, 4966, 5007, 5006, 6646, 6647, 6688, 6687
4765, 4966, 4967, 5008, 5007, 6647, 6648, 6689, 6688
4766, 4967, 4968, 5009, 5008, 6648, 6649, 6690, 6689
4767, 4968, 4969, 5010, 5009, 6649, 6650, 6691, 6690
4768, 4969, 4970, 5011, 5010, 6650, 6651, 6692, 6691
4769, 4970, 4971, 5012, 5011, 6651, 6652, 6693, 6692
4770, 4971, 4972, 5013, 5012, 6652, 6653, 6694, 6693
4771, 4972, 4973, 5014, 5013, 6653, 6654, 6695, 6694
4772, 4973, 4974, 5015, 5014, 6654, 6655, 6696, 6695
4773, 4974, 4975, 5016, 5015, 6655, 6656, 6697, 6696
4774, 4975, 4976, 5017, 5016, 6656, 6657, 6698, 6697
4775, 4976, 4977, 5018, 5017, 6657, 6658, 6699, 6698
4776, 4977, 4978, 5019, 5018, 6658, 6659, 6700, 6699
4777, 4978, 4979, 5020, 5019, 6659, 6660, 6701, 6700
4778, 4979, 4980, 5021, 5020, 6660, 6661, 6702, 6701
4779, 4980, 4981, 5022, 5021, 6661, 6662, 6703, 6702
4780, 4981, 4982, 5023, 5022, 6662, 6663, 6704, 6703
4781, 4982, 4983, 5024, 5023, 6663, 6664, 6705, 6704
4782, 4983, 4984, 5025, 5024, 6664, 6665, 6706, 6705
4783, 4984, 4985, 5026, 5025, 6665, 6666, 6707, 6706
4784, 4985, 4986, 5027, 5026, 6666, 6667, 6708, 6707
4785, 4986, 4987, 5028, 5027, 6667, 6668, 6709, 6708
4786, 4987, 4988, 5029, 5028, 6668, 6669, 6710, 6709
4787, 4988, 4989, 5030, 5029, 6669, 6670, 6711, 6710
4788, 4989, 4990, 5031, 5030, 6670, 6671, 6712, 6711
4789, 4990, 4991, 5032, 5031, 6671, 6672, 6713, 6712
4790, 4991, 4992, 5033, 5032, 6672, 6673, 6714, 6713
4791, 4992, 4993, 5034, 5033, 6673, 6674, 6715, 6714
4792, 4993, 4994, 5035, 5034, 6674, 6675, 6716, 6715
4793, 4994, 4995, 5036, 5035, 6675, 6676, 6717, 6716
4794, 4995, 4996, 5037, 5036, 6676, 6677, 6718, 6717
4795, 4996, 4997, 5038, 5037, 6677, 6678, 6719, 6718
4796, 4997, 4998, 5039, 5038, 6678, 6679, 6720, 6719
4797, 4998, 4999, 5040, 5039, 6679, 6680, 6721, 6720
4798, 4999, 5000, 5041, 5040, 6680, 6681, 6722, 6721
4799, 5000, 5001, 5042, 5041, 6681, 6682, 6723, 6722
4800, 5001, 5002, 5043, 5042, 6682, 6683, 6724, 6723
4801, 5044, 5045, 5086, 5085, 6725, 6726, 6767, 6766
4802, 5045, 5046, 5087, 5086, 6726, 6727, 6768, 6767
4803, 5046, 5047, 5088, 5087, 6727, 6728, 6769, 6768
4804, 5047, 5048, 5089, 5088, 6728, 6729, 6770, 6769
4805, 5048, 5049, 5090, 5089, 6729, 6730, 6771, 6770
4806, 5049, 5050, 5091, 5090, 6730, 6731, 6772, 6771
4807, 5050, 5051, 5092, 5091, 6731, 6732, 6773, 6772
4808, 5051, 5052, 5093, 5092, 6732, 6733, 6774, 6773
4809, 5052, 5053, 5094, 5093, 6733, 6734, 6775, 6774
4810, 5053, 5054, 5095, 5094, 6734, 6735, 6776, 6775
4811, 5054, 5055, 5096, 5095, 6735, 6736, 6777, 6776
4812, 5055, 5056, 5097, 5096, 6736, 6737, 6778, 6777
4813, 5056, 5057, 5098, 5097, 6737, 6738, 6779, 6778
4814, 5057, 5058, 5099, 5098, 6738, 6739, 6780, 6779
4815, 5058, 5059, 5100, 5099, 6739, 6740, 6781, 6780
4816, 5059, 5060, 5101, 5100, 6740, 6741, 6782, 6781
4817, 5060, 5061, 5102, 5101, 6741, 6742, 6783, 6782
4818, 5061, 5062, 5103, 5102, 6742, 6743, 6784, 6783
4819, 5062, 5063, 5104, 5103, 6743, 6744, 6785, 6784
4820, 5063, 5064, 5105, 5104, 6744, 6745, 6786, 6785
4821, 5064, 5065, 5106, 5105, 6745, 6746, 6787, 6786
4822, 5065, 5066, 5107, 5106, 6746, 6747, 6788, 6787
4823, 5066, 5067, 5108, 5107, 6747, 6748, 6789, 6788
4824, 5067, 5068, 5109, 5108, 6748, 6749, 6790, 6789
4825, 5068, 5069, 5110, 5109, 6749, 6750, 6791, 6790
4826, 5069, 5070, 5111, 5110, 6750, 6751, 6792, 6791
4827, 5070, 5071, 5112, 5111, 6751, 6752, 6793, 6792
4828, 5071, 5072, 5113, 5112, 6752, 6753, 6794, 6793
4829, 5072, 5073, 5114, 5113, 6753, 6754, 6795, 6794
4830, 5073, 5074, 5115, 5114, 6754, 6755, 6796, 6795
4831, 5074, 5075, 5116, 5115, 6755, 6756, 6797, 6796
4832, 5075, 5076, 5117, 5116, 6756, 6757, 6798, 6797
4833, 5076, 5077, 5118, 5117, 6757, 6758, 6799, 6798
4834, 5077, 5078, 5119, 5118, 6758, 6759, 6800, 6799
4835, 5078, 5079, 5120, 5119, 6759, 6760, 6801, 6800
4836, 5079, 5080, 5121, 5120, 6760, 6761, 6802, 6801
4837, 5080, 5081, 5122, 5121, 6761, 6762, 6803, 6802
4838, 5081, 5082, 5123, 5122, 6762, 6763, 6804, 6803
4839, 5082, 5083, 5124, 5123, 6763, 6764, 6805, 6804
4840, 5083, 5084, 5125, 5124, 6764, 6765, 6806, 6805
4841, 5085, 5086, 5127, 5126, 6766, 6767, 6808, 6807
4842, 5086, 5087, 5128, 5127, 6767, 6768, 6809, 6808
4843, 5087, 5088, 5129, 5128, 6768, 6769, 6810, 6809
4844, 5088, 5089, 5130, 5129, 6769, 6770, 6811, 6810
4845, 5089, 5090, 5131, 5130, 6770, 6771, 6812, 6811
4846, 5090, 5091, 5132, 5131, 6771, 6772, 6813, 6812
4847, 5091, 5092, 5133, 5132, 6772, 6773, 6814, 6813
4848, 5092, 5093, 5134, 5133, 6773, 6774, 6815, 6814
4849, 5093, 5094, 5135, 5134, 6774, 6775, 6816, 6815
4850, 5094, 5095, 5136, 5135, 6775, 6776, 6817, 6816
4851, 5095, 5096, 5137, 5136, 6776, 6777, 6818, 6817
4852, 5096, 5097, 5138, 5137, 6777, 6778, 6819, 6818
4853, 5097, 5098, 5139, 5138, 6778, 6779, 6820, 6819
4854, 5098, 5099, 5140, 5139, 6779, 6780, 6821, 6820
4855, 5099, 5100, 5141, 5140, 6780, 6781, 6822, 6821
4856, 5100, 5101, 5142, 5141, 6781, 6782, 6823, 6822
4857, 5101, 5102, 5143, 5142, 6782, 6783, 6824, 6823
4858, 5102, 5103, 5144, 5143, 6783, 6784, 6825, 6824
4859, 5103, 5104, 5145, 5144, 6784, 6785, 6826, 6825
4860, 5104, 5105, 5146, 5145, 6785, 6786, 6827, 6826
4861, 5105, 5106, 5147, 5146, 6786, 6787, 6828, 6827
4862, 5106, 5107, 5148, 5147, 6787, 6788, 6829, 6828
4863, 5107, 5108, 5149, 5148, 6788, 6789, 6830, 6829
4864, 5108, 5109, 5150, 5149, 6789, 6790, 6831, 6830
4865, 5109, 5110, 5151, 5150, 6790, 6791, 6832, 6831
4866, 5110, 5111, 5152, 5151, 6791, 6792, 6833, 6832
4867, 5111, 5112, 5153, 5152, 6792, 6793, 6834, 6833
4868, 5112, 5113, 5154, 5153, 6793, 6794, 6835, 6834
4869, 5113, 5114, 5155, 5154, 6794, 6795, 6836, 6835
4870, 5114, 5115, 5156, 5155, 6795, 6796, 6837, 6836
4871, 5115, 5116, 5157, 5156, 6796, 6797, 6838, 6837
4872, 5116, 5117, 5158, 5157, 6797, 6798, 6839, 6838
4873, 5117, 5118, 5159, 5158, 6798, 6799, 6840, 6839
4874, 5118, 5119, 5160, 5159, 6799, 6800, 6841, 6840
4875, 5119, 5120, 5161, 5160, 6800, 6801, 6842, 6841
4876, 5120, 5121, 5162, 5161, 6801, 6802, 6843, 6842
4877, 5121, 5122, 5163, 5162, 6802, 6803, 6844, 6843
4878, 5122, 5123, 5164, 5163, 6803, 6804, 6845, 6844
4879, 5123, 5124, 5165, 5164, 6804, 6805, 6846, 6845
4880, 5124, 5125, 5166, 5165, 6805, 6806, 6847, 6846
4881, 5126, 5127, 5168, 5167, 6807, 6808, 6849, 6848
4882, 5127, 5128, 5169, 5168, 6808, 6809, 6850, 6849
4883, 5128, 5129, 5170, 5169, 6809, 6810, 6851, 6850
4884, 5129, 5130, 5171, 5170, 6810, 6811, 6852, 6851
4885, 5130, 5131, 5172, 5171, 6811, 6812, 6853, 6852
4886, 5131, 5132, 5173, 5172, 6812, 6813, 6854, 6853
4887, 5132, 5133, 5174, 5173, 6813, 6814, 6855, 6854
4888, 5133, 5134, 5175, 5174, 6814, 6815, 6856, 6855
4889, 5134, 5135, 5176, 5175, 6815, 6816, 6857, 6856
4890, 5135, 5136, 5177, 5176, 6816, 6817, 6858, 6857
4891, 5136, 5137, 5178, 5177, 6817, 6818, 6859, 6858
4892, 5137, 5138, 5179, 5178, 6818, 6819, 6860, 6859
4893, 5138, 5139, 5180, 5179, 6819, 6820, 6861, 6860
4894, 5139, 5140, 5181, 5180, 6820, 6821, 6862, 6861
4895, 5140, 5141, 5182, 5181, 6821, 6822, 6863, 6862
4896, 5141, 5142, 5183, 5182, 6822, 6823, 6864, 6863
4897, 5142, 5143, 5184, 5183, 6823, 6824, 6865, 6864
4898, 5143, 5144, 5185, 5184, 6824, 6825, 6866, 6865
4899, 5144, 5145, 5186, 5185, 6825, 6826, 6867, 6866
4900, 5145, 5146, 5187, 5186, 6826, 6827, 6868, 6867
4901, 5146, 5147, 5188, 5187, 6827, 6828, 6869, 6868
4902, 5147, 5148, 5189, 5188, 6828, 6829, 6870, 6869
4903, 5148, 5149, 5190, 5189, 6829, 6830, 6871, 6870
4904, 5149, 5150, 5191, 5190, 6830, 6831, 6872, 6871
4905, 5150, 5151, 5192, 5191, 6831, 6832, 6873, 6872
4906, 5151, 5152, 5193, 5192, 6832, 6833, 6874, 6873
4907, 5152, 5153, 5194, 5193, 6833, 6834, 6875, 6874
4908, 5153, 5154, 5195, 5194, 6834, 6835, 6876, 6875
4909, 5154, 5155, 5196, 5195, 6835, 6836, 6877, 6876
4910, 5155, 5156, 5197, 5196, 6836, 6837, 6878, 6877
4911, 5156, 5157, 5198, 5197, 6837, 6838, 6879, 6878
4912, 5157, 5158, 5199, 5198, 6838, 6839, 6880, 6879
4913, 5158, 5159, 5200, 5199, 6839, 6840, 6881, 6880
4914, 5159, 5160, 5201, 5200, 6840, 6841, 6882, 6881
4915, 5160, 5161, 5202, 5201, 6841, 6842, 6883, 6882
4916, 5161, 5162, 5203, 5202, 6842, 6843, 6884, 6883
4917, 5162, 5163, 5204, 5203, 6843, 6844, 6885, 6884
4918, 5163, 5164, 5205, 5204, 6844, 6845, 6886, 6885
4919, 5164, 5165, 5206, 5205, 6845, 6846, 6887, 6886
4920, 5165, 5166, 5207, 5206, 6846, 6847, 6888, 6887
4921, 5167, 5168, 5209, 5208, 6848, 6849, 6890, 6889
4922, 5168, 5169, 5210, 5209, 6849, 6850, 6891, 6890
4923, 5169, 5170, 5211, 5210, 6850, 6851, 6892, 6891
4924, 5170, 5171, 5212, 5211, 6851, 6852, 6893, 6892
4925, 5171, 5172, 5213, 5212, 6852, 6853, 6894, 6893
4926, 5172, 5173, 5214, 5213, 6853, 6854, 6895, 6894
4927, 5173, 5174, 5215, 5214, 6854, 6855, 6896, 6895
4928, 5174, 5175, 5216, 5215, 6855, 6856, 6897, 6896
4929, 5175, 5176, 5217, 5216, 6856, 6857, 6898, 6897
4930, 5176, 5177, 5218, 5217, 6857, 6858, 6899, 6898
4931, 5177, 5178, 5219, 5218, 6858, 6859, 6900, 6899
4932, 5178, 5179, 5220, 5219, 6859, 6860, 6901, 6900
4933, 5179, 5180, 5221, 5220, 6860, 6861, 6902, 6901
4934, 5180, 5181, 5222, 5221, 6861, 6862, 6903, 6902
4935, 5181, 5182, 5223, 5222, 6862, 6863, 6904, 6903
4936, 5182, 5183, 5224, 5223, 6863, 6864, 6905, 6904
4937, 5183, 5184, 5225, 5224, 6864, 6865, 6906, 6905
4938, 5184, 5185, 5226, 5225, 6865, 6866, 6907, 6906
4939, 5185, 5186, 5227, 5226, 6866, 6867, 6908, 6907
4940, 5186, 5187, 5228, 5227, 6867, 6868, 6909, 6908
4941, 5187, 5188, 5229, 5228, 6868, 6869, 6910, 6909
4942, 5188, 5189, 5230, 5229, 6869, 6870, 6911, 6910
4943, 5189, 5190, 5231, 5230, 6870, 6871, 6912, 6911
4944, 5190, 5191, 5232, 5231, 6871, 6872, 6913, 6912
4945, 5191, 5192, 5233, 5232, 6872, 6873, 6914, 6913
4946, 5192, 5193, 5234, 5233, 6873, 6874, 6915, 6914
4947, 5193, 5194, 5235, 5234, 6874, 6875, 6916, 6915
4948, 5194, 5195, 5236, 5235, 6875, 6876, 6917, 6916
4949, 5195, 5196, 5237, 5236, 6876, 6877, 6918, 6917
4950, 5196, 5197, 5238, 5237, 6877, 6878, 6919, 6918
4951, 5197, 5198, 5239, 5238, 6878, 6879, 6920, 6919
4952, 5198, 5199, 5240, 5239, 6879, 6880, 6921, 6920
4953, 5199, 5200, 5241, 5240, 6880, 6881, 6922, 6921
4954, 5200, 5201, 5242, 5241, 6881, 6882, 6923, 6922
4955, 5201, 5202, 5243, 5242, 6882, 6883, 6924, 6923
4956, 5202, 5203, 5244, 5243, 6883, 6884, 6925, 6924
4957, 5203, 5204, 5245, 5244, 6884, 6885, 6926, 6925
4958, 5204, 5205, 5246, 5245, 6885, 6886, 6927, 6926
4959, 5205, 5206, 5247, 5246, 6886, 6887, 6928, 6927
4960, 5206, 5207, 5248, 5247, 6887, 6888, 6929, 6928
4961, 5208, 5209, 5250, 5249, 6889, 6890, 6931, 6930
4962, 5209, 5210, 5251, 5250, 6890, 6891, 6932, 6931
4963, 5210, 5211, 5252, 5251, 6891, 6892, 6933, 6932
4964, 5211, 5212, 5253, 5252, 6892, 6893, 6934, 6933
4965, 5212, 5213, 5254, 5253, 6893, 6894, 6935, 6934
4966, 5213, 5214, 5255, 5254, 6894, 6895, 6936, 6935
4967, 5214, 5215, 5256, 5255, 6895, 6896, 6937, 6936
4968, 5215, 5216, 5257, 5256, 6896, 6897, 6938, 6937
4969, 5216, 5217, 5258, 5257, 6897, 6898, 6939, 6938
4970, 5217, 5218, 5259, 5258, 6898, 6899, 6940, 6939
4971, 5218, 5219, 5260, 5259, 6899, 6900, 6941, 6940
4972, 5219, 5220, 5261, 5260, 6900, 6901, 6942, 6941
4973, 5220, 5221, 5262, 5261, 6901, 6902, 6943, 6942
4974, 5221, 5222, 5263, 5262, 6902, 6903, 6944, 6943
4975, 5222, 5223, 5264, 5263, 6903, 6904, 6945, 6944
4976, 5223, 5224, 5265, 5264, 6904, 6905, 6946, 6945
4977, 5224, 5225, 5266, 5265, 6905, 6906, 6947, 6946
4978, 5225, 5226, 5267, 5266, 6906, 6907, 6948, 6947
4979, 5226, 5227, 5268, 5267, 6907, 6908, 6949, 6948
4980, 5227, 5228, 5269, 5268, 6908, 6909, 6950, 6949
4981, 5228, 5229, 5270, 5269, 6909, 6910, 6951, 6950
4982, 5229, 5230, 5271, 5270, 6910, 6911, 6952, 6951
4983, 5230, 5231, 5272, 5271, 6911, 6912, 6953, 6952
4984, 5231, 5232, 5273, 5272, 6912, 6913, 6954, 6953
4985, 5232, 5233, 5274, 5273, 6913, 6914, 6955, 6954
4986, 5233, 5234, 5275, 5274, 6914, 6915, 6956, 6955
4987, 5234, 5235, 5276, 5275, 6915, 6916, 6957, 6956
4988, 5235, 5236, 5277, 5276, 6916, 6917, 6958, 6957
4989, 5236, 5237, 5278, 5277, 6917, 6918, 6959, 6958
4990, 5237, 5238, 5279, 5278, 6918, 6919, 6960, 6959
4991, 5238, 5239, 5280, 5279, 6919, 6920, 6961, 6960
4992, 5239, 5240, 5281, 5280, 6920, 6921, 6962, 6961
4993, 5240, 5241, 5282, 5281, 6921, 6922, 6963, 6962
4994, 5241, 5242, 5283, 5282, 6922, 6923, 6964, 6963
4995, 5242, 5243, 5284, 5283, 6923, 6924, 6965, 6964
4996, 5243, 5244, 5285, 5284, 6924, 6925, 6966, 6965
4997, 5244, 5245, 5286, 5285, 6925, 6926, 6967, 6966
4998, 5245, 5246, 5287, 5286, 6926, 6927, 6968, 6967
4999, 5246, 5247, 5288, 5287, 6927, 6928, 6969, 6968
5000, 5247, 5248, 5289, 5288, 6928, 6929, 6970, 6969
5001, 5249, 5250, 5291, 5290, 6930, 6931, 6972, 6971
5002, 5250, 5251, 5292, 5291, 6931, 6932, 6973, 6972
5003, 5251, 5252, 5293, 5292, 6932, 6933, 6974, 6973
5004, 5252, 5253, 5294, 5293, 6933, 6934, 6975, 6974
5005, 5253, 5254, 5295, 5294, 6934, 6935, 6976, 6975
5006, 5254, 5255, 5296, 5295, 6935, 6936, 6977, 6976
5007, 5255, 5256, 5297, 5296, 6936, 6937, 6978, 6977
5008, 5256, 5257, 5298, 5297, 6937, 6938, 6979, 6978
5009, 5257, 5258, 5299, 5298, 6938, 6939, 6980, 6979
5010, 5258, 5259, 5300, 5299, 6939, 6940, 6981, 6980
5011, 5259, 5260, 5301, 5300, 6940, 6941, 6982, 6981
5012, 5260, 5261, 5302, 5301, 6941, 6942, 6983, 6982
5013, 5261, 5262, 5303, 5302, 6942, 6943, 6984, 6983
5014, 5262, 5263, 5304, 5303, 6943, 6944, 6985, 6984
5015, 5263, 5264, 5305, 5304, 6944, 6945, 6986, 6985
5016, 5264, 5265, 5306, 5305, 6945, 6946, 6987, 6986
5017, 5265, 5266, 5307, 5306, 6946, 6947, 6988, 6987
5018, 5266, 5267, 5308, 5307, 6947, 6948, 6989, 6988
5019, 5267, 5268, 5309, 5308, 6948, 6949, 6990, 6989
5020, 5268, 5269, 5310, 5309, 6949, 6950, 6991, 6990
5021, 5269, 5270, 5311, 5310, 6950, 6951, 6992, 6991
5022, 5270, 5271, 5312, 5311, 6951, 6952, 6993, 6992
5023, 5271, 5272, 5313, 5312, 6952, 6953, 6994, 6993
5024, 5272, 5273, 5314, 5313, 6953, 6954, 6995, 6994
5025, 5273, 5274, 5315, 5314, 6954, 6955, 6996, 6995
5026, 5274, 5275, 5316, 5315, 6955, 6956, 6997, 6996
5027, 5275, 5276, 5317, 5316, 6956, 6957, 6998, 6997
5028, 5276, 5277, 5318, 5317, 6957, 6958, 6999, 6998
5029, 5277, 5278, 5319, 5318, 6958, 6959, 7000, 6999
5030, 5278, 5279, 5320, 5319, 6959, 6960, 7001, 7000
5031, 5279, 5280, 5321, 5320, 6960, 6961, 7002, 7001
5032, 5280, 5281, 5322, 5321, 6961, 6962, 7003, 7002
5033, 5281, 5282, 5323, 5322, 6962, 6963, 7004, 7003
5034, 5282, 5283, 5324, 5323, 6963, 6964, 7005, 7004
5035, 5283, 5284, 5325, 5324, 6964, 6965, 7006, 7005
5036, 5284, 5285, 5326, 5325, 6965, 6966, 7007, 7006
5037, 5285, 5286, 5327, 5326, 6966, 6967, 7008, 7007
5038, 5286, 5287, 5328, 5327, 6967, 6968, 7009, 7008
5039, 5287, 5288, 5329, 5328, 6968, 6969, 7010, 7009
5040, 5288, 5289, 5330, 5329, 6969, 6970, 7011, 7010
5041, 5290, 5291, 5332, 5331, 6971, 6972, 7013, 7012
5042, 5291, 5292, 5333, 5332, 6972, 6973, 7014, 7013
5043, 5292, 5293, 5334, 5333, 6973, 6974, 7015, 7014
5044, 5293, 5294, 5335, 5334, 6974, 6975, 7016, 7015
5045, 5294, 5295, 5336, 5335, 6975, 6976, 7017, 7016
5046, 5295, 5296, 5337, 5336, 6976, 6977, 7018, 7017
5047, 5296, 5297, 5338, 5337, 6977, 6978, 7019, 7018
5048, 5297, 5298, 5339, 5338, 6978, 6979, 7020, 7019
5049, 5298, 5299, 5340, 5339, 6979, 6980, 7021, 7020
5050, 5299, 5300, 5341, 5340, 6980, 6981, 7022, 7021
5051, 5300, 5301, 5342, 5341, 6981, 6982, 7023, 7022
5052, 5301, 5302, 5343, 5342, 6982, 6983, 7024, 7023
5053, 5302, 5303, 5344, 5343, 6983, 6984, 7025, 7024
5054, 5303, 5304, 5345, 5344, 6984, 6985, 7026, 7025
5055, 5304, 5305, 5346, 5345, 6985, 6986, 7027, 7026
5056, 5305, 5306, 5347, 5346, 6986, 6987, 7028, 7027
5057, 5306, 5307, 5348, 5347, 6987, 6988, 7029, 7028
5058, 5307, 5308, 5349, 5348, 6988, 6989, 7030, 7029
5059, 5308, 5309, 5350, 5349, 6989, 6990, 7031, 7030
5060, 5309, 5310, 5351, 5350, 6990, 6991, 7032, 7031
5061, 5310, 5311, 5352, 5351, 6991, 6992, 7033, 7032
5062, 5311, 5312, 5353, 5352, 6992, 6993, 7034, 7033
5063, 5312, 5313, 5354, 5353, 6993, 6994, 7035, 7034
5064, 5313, 5314, 5355, 5354, 6994, 6995, 7036, 7035
5065, 5314, 5315, 5356, 5355, 6995, 6996, 7037, 7036
5066, 5315, 5316, 5357, 5356, 6996, 6997, 7038, 7037
5067, 5316, 5317, 5358, 5357, 6997, 6998, 7039, 7038
5068, 5317, 5318, 5359, 5358, 6998, 6999, 7040, 7039
5069, 5318, 5319, 5360, 5359, 6999, 7000, 7041, 7040
5070, 5319, 5320, 5361, 5360, 7000, 7001, 7042, 7041
5071, 5320, 5321, 5362, 5361, 7001, 7002, 7043, 7042
5072, 5321, 5322, 5363, 5362, 7002, 7003, 7044, 7043
5073, 5322, 5323, 5364, 5363, 7003, 7004, 7045, 7044
5074, 5323, 5324, 5365, 5364, 7004, 7005, 7046, 7045
5075, 5324, 5325, 5366, 5365, 7005, 7006, 7047, 7046
5076, 5325, 5326, 5367, 5366, 7006, 7007, 7048, 7047
5077, 5326, 5327, 5368, 5367, 7007, 7008, 7049, 7048
5078, 5327, 5328, 5369, 5368, 7008, 7009, 7050, 7049
5079, 5328, 5329, 5370, 5369, 7009, 7010, 7051, 7050
5080, 5329, 5330, 5371, 5370, 7010, 7011, 7052, 7051
5081, 5331, 5332, 5373, 5372, 7012, 7013, 7054, 7053
5082, 5332, 5333, 5374, 5373, 7013, 7014, 7055, 7054
5083, 5333, 5334, 5375, 5374, 7014, 7015, 7056, 7055
5084, 5334, 5335, 5376, 5375, 7015, 7016, 7057, 7056
5085, 5335, 5336, 5377, 5376, 7016, 7017, 7058, 7057
5086, 5336, 5337, 5378, 5377, 7017, 7018, 7059, 7058
5087, 5337, 5338, 5379, 5378, 7018, 7019, 7060, 7059
5088, 5338, 5339, 5380, 5379, 7019, 7020, 7061, 7060
5089, 5339, 5340, 5381, 5380, 7020, 7021, 7062, 7061
5090, 5340, 5341, 5382, 5381, 7021, 7022, 7063, 7062
5091, 5341, 5342, 5383, 5382, 7022, 7023, 7064, 7063
5092, 5342, 5343, 5384, 5383, 7023, 7024, 7065, 7064
5093, 5343, 5344, 5385, 5384, 7024, 7025, 7066, 7065
5094, 5344, 5345, 5386, 5385, 7025, 7026, 7067, 7066
5095, 5345, 5346, 5387, 5386, 7026, 7027, 7068, 7067
5096, 5346, 5347, 5388, 5387, 7027, 7028, 7069, 7068
5097, 5347, 5348, 5389, 5388, 7028, 7029, 7070, 7069
5098, 5348, 5349, 5390, 5389, 7029, 7030, 7071, 7070
5099, 5349, 5350, 5391, 5390, 7030, 7031, 7072, 7071
5100, 5350, 5351, 5392, 5391, 7031, 7032, 7073, 7072
5101, 5351, 5352, 5393, 5392, 7032, 7033, 7074, 7073
5102, 5352, 5353, 5394, 5393, 7033, 7034, 7075, 7074
5103, 5353, 5354, 5395, 5394, 7034, 7035, 7076, 7075
5104, 5354, 5355, 5396, 5395, 7035, 7036, 7077, 7076
5105, 5355, 5356, 5397, 5396, 7036, 7037, 7078, 7077
5106, 5356, 5357, 5398, 5397, 7037, 7038, 7079, 7078
5107, 5357, 5358, 5399, 5398, 7038, 7039, 7080, 7079
5108, 5358, 5359, 5400, 5399, 7039, 7040, 7081, 7080
5109, 5359, 5360, 5401, 5400, 7040, 7041, 7082, 7081
5110, 5360, 5361, 5402, 5401, 7041, 7042, 7083, 7082
5111, 5361, 5362, 5403, 5402, 7042, 7043, 7084, 7083
5112, 5362, 5363, 5404, 5403, 7043, 7044, 7085, 7084
5113, 5363, 5364, 5405, 5404, 7044, 7045, 7086, 7085
5114, 5364, 5365, 5406, 5405, 7045, 7046, 7087, 7086
5115, 5365, 5366, 5407, 5406, 7046, 7047, 7088, 7087
5116, 5366, 5367, 5408, 5407, 7047, 7048, 7089, 7088
5117, 5367, 5368, 5409, 5408, 7048, 7049, 7090, 7089
5118, 5368, 5369, 5410, 5409, 7049, 7050, 7091, 7090
5119, 5369, 5370, 5411, 5410, 7050, 7051, 7092, 7091
5120, 5370, 5371, 5412, 5411, 7051, 7052, 7093, 7092
5121, 5372, 5373, 5414, 5413, 7053, 7054, 7095, 7094
5122, 5373, 5374, 5415, 5414, 7054, 7055, 7096, 7095
5123, 5374, 5375, 5416, 5415, 7055, 7056, 7097, 7096
5124, 5375, 5376, 5417, 5416, 7056, 7057, 7098, 7097
5125, 5376, 5377, 5418, 5417, 7057, 7058, 7099, 7098
5126, 5377, 5378, 5419, 5418, 7058, 7059, 7100, 7099
5127, 5378, 5379, 5420, 5419, 7059, 7060, 7101, 7100
5128, 5379, 5380, 5421, 5420, 7060, 7061, 7102, 7101
5129, 5380, 5381, 5422, 5421, 7061, 7062, 7103, 7102
5130, 5381, 5382, 5423, 5422, 7062, 7063, 7104, 7103
5131, 5382, 5383, 5424, 5423, 7063, 7064, 7105, 7104
5132, 5383, 5384, 5425, 5424, 7064, 7065, 7106, 7105
5133, 5384, 5385, 5426, 5425, 7065, 7066, 7107, 7106
5134, 5385, 5386, 5427, 5426, 7066, 7067, 7108, 7107
5135, 5386, 5387, 5428, 5427, 7067, 7068, 7109, 7108
5136, 5387, 5388, 5429, 5428, 7068, 7069, 7110, 7109
5137, 5388, 5389, 5430, 5429, 7069, 7070, 7111, 7110
5138, 5389, 5390, 5431, 5430, 7070, 7071, 7112, 7111
5139, 5390, 5391, 5432, 5431, 7071, 7072, 7113, 7112
5140, 5391, 5392, 5433, 5432, 7072, 7073, 7114, 7113
5141, 5392, 5393, 5434, 5433, 7073, 7074, 7115, 7114
5142, 5393, 5394, 5435, 5434, 7074, 7075, 7116, 7115
5143, 5394, 5395, 5436, 5435, 7075, 7076, 7117, 7116
5144, 5395, 5396, 5437, 5436, 7076, 7077, 7118, 7117
5145, 5396, 5397, 5438, 5437, 7077, 7078, 7119, 7118
5146, 5397, 5398, 5439, 5438, 7078, 7079, 7120, 7119
5147, 5398, 5399, 5440, 5439, 7079, 7080, 7121, 7120
5148, 5399, 5400, 5441, 5440, 7080, 7081, 7122, 7121
5149, 5400, 5401, 5442, 5441, 7081, 7082, 7123, 7122
5150, 5401, 5402, 5443, 5442, 7082, 7083, 7124, 7123
5151, 5402, 5403, 5444, 5443, 7083, 7084, 7125, 7124
5152, 5403, 5404, 5445, 5444, 7084, 7085, 7126, 7125
5153, 5404, 5405, 5446, 5445, 7085, 7086, 7127, 7126
5154, 5405, 5406, 5447, 5446, 7086, 7087, 7128, 7127
5155, 5406, 5407, 5448, 5447, 7087, 7088, 7129, 7128
5156, 5407, 5408, 5449, 5448, 7088, 7089, 7130, 7129
5157, 5408, 5409, 5450, 5449, 7089, 7090, 7131, 7130
5158, 5409, 5410, 5451, 5450, 7090, 7091, 7132, 7131
5159, 5410, 5411, 5452, 5451, 7091, 7092, 7133, 7132
5160, 5411, 5412, 5453, 5452, 7092, 7093, 7134, 7133
5161, 5413, 5414, 5455, 5454, 7094, 7095, 7136, 7135
5162, 5414, 5415, 5456, 5455, 7095, 7096, 7137, 7136
5163, 5415, 5416, 5457, 5456, 7096, 7097, 7138, 7137
5164, 5416, 5417, 5458, 5457, 7097, 7098, 7139, 7138
5165, 5417, 5418, 5459, 5458, 7098, 7099, 7140, 7139
5166, 5418, 5419, 5460, 5459, 7099, 7100, 7141, 7140
5167, 5419, 5420, 5461, 5460, 7100, 7101, 7142, 7141
5168, 5420, 5421, 5462, 5461, 7101, 7102, 7143, 7142
5169, 5421, 5422, 5463, 5462, 7102, 7103, 7144, 7143
5170, 5422, 5423, 5464, 5463, 7103, 7104, 7145, 7144
5171, 5423, 5424, 5465, 5464, 7104, 7105, 7146, 7145
5172, 5424, 5425, 5466, 5465, 7105, 7106, 7147, 7146
5173, 5425, 5426, 5467, 5466, 7106, 7107, 7148, 7147
5174, 5426, 5427, 5468, 5467, 7107, 7108, 7149, 7148
5175, 5427, 5428, 5469, 5468, 7108, 7109, 7150, 7149
5176, 5428, 5429, 5470, 5469, 7109, 7110, 7151, 7150
5177, 5429, 5430, 5471, 5470, 7110, 7111, 7152, 7151
5178, 5430, 5431, 5472, 5471, 7111, 7112, 7153, 7152
5179, 5431, 5432, 5473, 5472, 7112, 7113, 7154, 7153
5180, 5432, 5433, 5474, 5473, 7113, 7114, 7155, 7154
5181, 5433, 5434, 5475, 5474, 7114, 7115, 7156, 7155
5182, 5434, 5435, 5476, 5475, 7115, 7116, 7157, 7156
5183, 5435, 5436, 5477, 5476, 7116, 7117, 7158, 7157
5184, 5436, 5437, 5478, 5477, 7117, 7118, 7159, 7158
5185, 5437, 5438, 5479, 5478, 7118, 7119, 7160, 7159
5186, 5438, 5439, 5480, 5479, 7119, 7120, 7161, 7160
5187, 5439, 5440, 5481, 5480, 7120, 7121, 7162, 7161
5188, 5440, 5441, 5482, 5481, 7121, 7122, 7163, 7162
5189, 5441, 5442, 5483, 5482, 7122, 7123, 7164, 7163
5190, 5442, 5443, 5484, 5483, 7123, 7124, 7165, 7164
5191, 5443, 5444, 5485, 5484, 7124, 7125, 7166, 7165
5192, 5444, 5445, 5486, 5485, 7125, 7126, 7167, 7166
5193, 5445, 5446, 5487, 5486, 7126, 7127, 7168, 7167
5194, 5446, 5447, 5488, 5487, 7127, 7128, 7169, 7168
5195, 5447, 5448, 5489, 5488, 7128, 7129, 7170, 7169
5196, 5448, 5449, 5490, 5489, 7129, 7130, 7171, 7170
5197, 5449, 5450, 5491, 5490, 7130, 7131, 7172, 7171
5198, 5450, 5451, 5492, 5491, 7131, 7132, 7173, 7172
5199, 5451, 5452, 5493, 5492, 7132, 7133, 7174, 7173
5200, 5452, 5453, 5494, 5493, 7133, 7134, 7175, 7174
5201, 5454, 5455, 5496, 5495, 7135, 7136, 7177, 7176
5202, 5455, 5456, 5497, 5496, 7136, 7137, 7178, 7177
5203, 5456, 5457, 5498, 5497, 7137, 7138, 7179, 7178
5204, 5457, 5458, 5499, 5498, 7138, 7139, 7180, 7179
5205, 5458, 5459, 5500, 5499, 7139, 7140, 7181, 7180
5206, 5459, 5460, 5501, 5500, 7140, 7141, 7182, 7181
5207, 5460, 5461, 5502, 5501, 7141, 7142, 7183, 7182
5208, 5461, 5462, 5503, 5502, 7142, 7143, 7184, 7183
5209, 5462, 5463, 5504, 5503, 7143, 7144, 7185, 7184
5210, 5463, 5464, 5505, 5504, 7144, 7145, 7186, 7185
5211, 5464, 5465, 5506, 5505, 7145, 7146, 7187, 7186
5212, 5465, 5466, 5507, 5506, 7146, 7147, 7188, 7187
5213, 5466, 5467, 5508, 5507, 7147, 7148, 7189, 7188
5214, 5467, 5468, 5509, 5508, 7148, 7149, 7190, 7189
5215, 5468, 5469, 5510, 5509, 7149, 7150, 7191, 7190
5216, 5469, 5470, 5511, 5510, 7150, 7151, 7192, 7191
5217, 5470, 5471, 5512, 5511, 7151, 7152, 7193, 7192
5218, 5471, 5472, 5513, 5512, 7152, 7153, 7194, 7193
5219, 5472, 5473, 5514, 5513, 7153, 7154, 7195, 7194
5220, 5473, 5474, 5515, 5514, 7154, 7155, 7196, 7195
5221, 5474, 5475, 5516, 5515, 7155, 7156, 7197, 7196
5222, 5475, 5476, 5517, 5516, 7156, 7157, 7198, 7197
5223, 5476, 5477, 5518, 5517, 7157, 7158, 7199, 7198
5224, 5477, 5478, 5519, 5518, 7158, 7159, 7200, 7199
5225, 5478, 5479, 5520, 5519, 7159, 7160, 7201, 7200
5226, 5479, 5480, 5521, 5520, 7160, 7161, 7202, 7201
5227, 5480, 5481, 5522, 5521, 7161, 7162, 7203, 7202
5228, 5481, 5482, 5523, 5522, 7162, 7163, 7204, 7203
5229, 5482, 5483, 5524, 5523, 7163, 7164, 7205, 7204
5230, 5483, 5484, 5525, 5524, 7164, 7165, 7206, 7205
5231, 5484, 5485, 5526, 5525, 7165, 7166, 7207, 7206
5232, 5485, 5486, 5527, 5526, 7166, 7167, 7208, 7207
5233, 5486, 5487, 5528, 5527, 7167, 7168, 7209, 7208
5234, 5487, 5488, 5529, 5528, 7168, 7169, 7210, 7209
5235, 5488, 5489, 5530, 5529, 7169, 7170, 7211, 7210
5236, 5489, 5490, 5531, 5530, 7170, 7171, 7212, 7211
5237, 5490, 5491, 5532, 5531, 7171, 7172, 7213, 7212
5238, 5491, 5492, 5533, 5532, 7172, 7173, 7214, 7213
5239, 5492, 5493, 5534, 5533, 7173, 7174, 7215, 7214
5240, 5493, 5494, 5535, 5534, 7174, 7175, 7216, 7215
5241, 5495, 5496, 5537, 5536, 7176, 7177, 7218, 7217
5242, 5496, 5497, 5538, 5537, 7177, 7178, 7219, 7218
5243, 5497, 5498, 5539, 5538, 7178, 7179, 7220, 7219
5244, 5498, 5499, 5540, 5539, 7179, 7180, 7221, 7220
5245, 5499, 5500, 5541, 5540, 7180, 7181, 7222, 7221
5246, 5500, 5501, 5542, 5541, 7181, 7182, 7223, 7222
5247, 5501, 5502, 5543, 5542, 7182, 7183, 7224, 7223
5248, 5502, 5503, 5544, 5543, 7183, 7184, 7225, 7224
5249, 5503, 5504, 5545, 5544, 7184, 7185, 7226, 7225
5250, 5504, 5505, 5546, 5545, 7185, 7186, 7227, 7226
5251, 5505, 5506, 5547, 5546, 7186, 7187, 7228, 7227
5252, 5506, 5507, 5548, 5547, 7187, 7188, 7229, 7228
5253, 5507, 5508, 5549, 5548, 7188, 7189, 7230, 7229
5254, 5508, 5509, 5550, 5549, 7189, 7190, 7231, 7230
5255, 5509, 5510, 5551, 5550, 7190, 7191, 7232, 7231
5256, 5510, 5511, 5552, 5551, 7191, 7192, 7233, 7232
5257, 5511, 5512, 5553, 5552, 7192, 7193, 7234, 7233
5258, 5512, 5513, 5554, 5553, 7193, 7194, 7235, 7234
5259, 5513, 5514, 5555, 5554, 7194, 7195, 7236, 7235
5260, 5514, 5515, 5556, 5555, 7195, 7196, 7237, 7236
5261, 5515, 5516, 5557, 5556, 7196, 7197, 7238, 7237
5262, 5516, 5517, 5558, 5557, 7197, 7198, 7239, 7238
5263, 5517, 5518, 5559, 5558, 7198, 7199, 7240, 7239
5264, 5518, 5519, 5560, 5559, 7199, 7200, 7241, 7240
5265, 5519, 5520, 5561, 5560, 7200, 7201, 7242, 7241
5266, 5520, 5521, 5562, 5561, 7201, 7202, 7243, 7242
5267, 5521, 5522, 5563, 5562, 7202, 7203, 7244, 7243
5268, 5522, 5523, 5564, 5563, 7203, 7204, 7245, 7244
5269, 5523, 5524, 5565, 5564, 7204, 7205, 7246, 7245
5270, 5524, 5525, 5566, 5565, 7205, 7206, 7247, 7246
5271, 5525, 5526, 5567, 5566, 7206, 7207, 7248, 7247
5272, 5526, 5527, 5568, 5567, 7207, 7208, 7249, 7248
5273, 5527, 5528, 5569, 5568, 7208, 7209, 7250, 7249
5274, 5528, 5529, 5570, 5569, 7209, 7210, 7251, 7250
5275, 5529, 5530, 5571, 5570, 7210, 7211, 7252, 7251
5276, 5530, 5531, 5572, 5571, 7211, 7212, 7253, 7252
5277, 5531, 5532, 5573, 5572, 7212, 7213, 7254, 7253
5278, 5532, 5533, 5574, 5573, 7213, 7214, 7255, 7254
5279, 5533, 5534, 5575, 5574, 7214, 7215, 7256, 7255
5280, 5534, 5535, 5576, 5575, 7215, 7216, 7257, 7256
5281, 5536, 5537, 5578, 5577, 7217, 7218, 7259, 7258
5282, 5537, 5538, 5579, 5578, 7218, 7219, 7260, 7259
5283, 5538, 5539, 5580, 5579, 7219, 7220, 7261, 7260
5284, 5539, 5540, 5581, 5580, 7220, 7221, 7262, 7261
5285, 5540, 5541, 5582, 5581, 7221, 7222, 7263, 7262
5286, 5541, 5542, 5583, 5582, 7222, 7223, 7264, 7263
5287, 5542, 5543, 5584, 5583, 7223, 7224, 7265, 7264
5288, 5543, 5544, 5585, 5584, 7224, 7225, 7266, 7265
5289, 5544, 5545, 5586, 5585, 7225, 7226, 7267, 7266
5290, 5545, 5546, 5587, 5586, 7226, 7227, 7268, 7267
5291, 5546, 5547, 5588, 5587, 7227, 7228, 7269, 7268
5292, 5547, 5548, 5589, 5588, 7228, 7229, 7270, 7269
5293, 5548, 5549, 5590, 5589, 7229, 7230, 7271, 7270
5294, 5549, 5550, 5591, 5590, 7230, 7231, 7272, 7271
5295, 5550, 5551, 5592, 5591, 7231, 7232, 7273, 7272
5296, 5551, 5552, 5593, 5592, 7232, 7233, 7274, 7273
5297, 5552, 5553, 5594, 5593, 7233, 7234, 7275, 7274
5298, 5553, 5554, 5595, 5594, 7234, 7235, 7276, 7275
5299, 5554, 5555, 5596, 5595, 7235, 7236, 7277, 7276
5300, 5555, 5556, 5597, 5596, 7236, 7237, 7278, 7277
5301, 5556, 5557, 5598, 5597, 7237, 7238, 7279, 7278
5302, 5557, 5558, 5599, 5598, 7238, 7239, 7280, 7279
5303, 5558, 5559, 5600, 5599, 7239, 7240, 7281, 7280
5304, 5559, 5560, 5601, 5600, 7240, 7241, 7282, 7281
5305, 5560, 5561, 5602, 5601, 7241, 7242, 7283, 7282
5306, 5561, 5562, 5603, 5602, 7242, 7243, 7284, 7283
5307, 5562, 5563, 5604, 5603, 7243, 7244, 7285, 7284
5308, 5563, 5564, 5605, 5604, 7244, 7245, 7286, 7285
5309, 5564, 5565, 5606, 5605, 7245, 7246, 7287, 7286
5310, 5565, 5566, 5607, 5606, 7246, 7247, 7288, 7287
5311, 5566, 5567, 5608, 5607, 7247, 7248, 7289, 7288
5312, 5567, 5568, 5609, 5608, 7248, 7249, 7290, 7289
5313, 5568, 5569, 5610, 5609, 7249, 7250, 7291, 7290
5314, 5569, 5570, 5611, 5610, 7250, 7251, 7292, 7291
5315, 5570, 5571, 5612, 5611, 7251, 7252, 7293, 7292
5316, 5571, 5572, 5613, 5612, 7252, 7253, 7294, 7293
5317, 5572, 5573, 5614, 5613, 7253, 7254, 7295, 7294
5318, 5573, 5574, 5615, 5614, 7254, 7255, 7296, 7295
5319, 5574, 5575, 5616, 5615, 7255, 7256, 7297, 7296
5320, 5575, 5576, 5617, 5616, 7256, 7257, 7298, 7297
5321, 5577, 5578, 5619, 5618, 7258, 7259, 7300, 7299
5322, 5578, 5579, 5620, 5619, 7259, 7260, 7301, 7300
5323, 5579, 5580, 5621, 5620, 7260, 7261, 7302, 7301
5324, 5580, 5581, 5622, 5621, 7261, 7262, 7303, 7302
5325, 5581, 5582, 5623, 5622, 7262, 7263, 7304, 7303
5326, 5582, 5583, 5624, 5623, 7263, 7264, 7305, 7304
5327, 5583, 5584, 5625, 5624, 7264, 7265, 7306, 7305
5328, 5584, 5585, 5626, 5625, 7265, 7266, 7307, 7306
5329, 5585, 5586, 5627, 5626, 7266, 7267, 7308, 7307
5330, 5586, 5587, 5628, 5627, 7267, 7268, 7309, 7308
5331, 5587, 5588, 5629, 5628, 7268, 7269, 7310, 7309
5332, 5588, 5589, 5630, 5629, 7269, 7270, 7311, 7310
5333, 5589, 5590, 5631, 5630, 7270, 7271, 7312, 7311
5334, 5590, 5591, 5632, 5631, 7271, 7272, 7313, 7312
5335, 5591, 5592, 5633, 5632, 7272, 7273, 7314, 7313
5336, 5592, 5593, 5634, 5633, 7273, 7274, 7315, 7314
5337, 5593, 5594, 5635, 5634, 7274, 7275, 7316, 7315
5338, 5594, 5595, 5636, 5635, 7275, 7276, 7317, 7316
5339, 5595, 5596, 5637, 5636, 7276, 7277, 7318, 7317
5340, 5596, 5597, 5638, 5637, 7277, 7278, 7319, 7318
5341, 5597, 5598, 5639, 5638, 7278, 7279, 7320, 7319
5342, 5598, 5599, 5640, 5639, 7279, 7280, 7321, 7320
5343, 5599, 5600, 5641, 5640, 7280, 7281, 7322, 7321
5344, 5600, 5601, 5642, 5641, 7281, 7282, 7323, 7322
5345, 5601, 5602, 5643, 5642, 7282, 7283, 7324, 7323
5346, 5602, 5603, 5644, 5643, 7283, 7284, 7325, 7324
5347, 5603, 5604, 5645, 5644, 7284, 7285, 7326, 7325
5348, 5604, 5605, 5646, 5645, 7285, 7286, 7327, 7326
5349, 5605, 5606, 5647, 5646, 7286, 7287, 7328, 7327
5350, 5606, 5607, 5648, 5647, 7287, 7288, 7329, 7328
5351, 5607, 5608, 5649, 5648, 7288, 7289, 7330, 7329
5352, 5608, 5609, 5650, 5649, 7289, 7290, 7331, 7330
5353, 5609, 5610, 5651, 5650, 7290, 7291, 7332, 7331
5354, 5610, 5611, 5652, 5651, 7291, 7292, 7333, 7332
5355, 5611, 5612, 5653, 5652, 7292, 7293, 7334, 7333
5356, 5612, 5613, 5654, 5653, 7293, 7294, 7335, 7334
5357, 5613, 5614, 5655, 5654, 7294, 7295, 7336, 7335
5358, 5614, 5615, 5656, 5655, 7295, 7296, 7337, 7336
5359, 5615, 5616, 5657, 5656, 7296, 7297, 7338, 7337
5360, 5616, 5617, 5658, 5657, 7297, 7298, 7339, 7338
5361, 5618, 5619, 5660, 5659, 7299, 7300, 7341, 7340
5362, 5619, 5620, 5661, 5660, 7300, 7301, 7342, 7341
5363, 5620, 5621, 5662, 5661, 7301, 7302, 7343, 7342
5364, 5621, 5622, 5663, 5662, 7302, 7303, 7344, 7343
5365, 5622, 5623, 5664, 5663, 7303, 7304, 7345, 7344
5366, 5623, 5624, 5665, 5664, 7304, 7305, 7346, 7345
5367, 5624, 5625, 5666, 5665, 7305, 7306, 7347, 7346
5368, 5625, 5626, 5667, 5666, 7306, 7307, 7348, 7347
5369, 5626, 5627, 5668, 5667, 7307, 7308, 7349, 7348
5370, 5627, 5628, 5669, 5668, 7308, 7309, 7350, 7349
5371, 5628, 5629, 5670, 5669, 7309, 7310, 7351, 7350
5372, 5629, 5630, 5671, 5670, 7310, 7311, 7352, 7351
5373, 5630, 5631, 5672, 5671, 7311, 7312, 7353, 7352
5374, 5631, 5632, 5673, 5672, 7312, 7313, 7354, 7353
5375, 5632, 5633, 5674, 5673, 7313, 7314, 7355, 7354
5376, 5633, 5634, 5675, 5674, 7314, 7315, 7356, 7355
5377, 5634, 5635, 5676, 5675, 7315, 7316, 7357, 7356
5378, 5635, 5636, 5677, 5676, 7316, 7317, 7358, 7357
5379, 5636, 5637, 5678, 5677, 7317, 7318, 7359, 7358
5380, 5637, 5638, 5679, 5678, 7318, 7319, 7360, 7359
5381, 5638, 5639, 5680, 5679, 7319, 7320, 7361, 7360
5382, 5639, 5640, 5681, 5680, 7320, 7321, 7362, 7361
5383, 5640, 5641, 5682, 5681, 7321, 7322, 7363, 7362
5384, 5641, 5642, 5683, 5682, 7322, 7323, 7364, 7363
5385, 5642, 5643, 5684, 5683, 7323, 7324, 7365, 7364
5386, 5643, 5644, 5685, 5684, 7324, 7325, 7366, 7365
5387, 5644, 5645, 5686, 5685, 7325, 7326, 7367, 7366
5388, 5645, 5646, 5687, 5686, 7326, 7327, 7368, 7367
5389, 5646, 5647, 5688, 5687, 7327, 7328, 7369, 7368
5390, 5647, 5648, 5689, 5688, 7328, 7329, 7370, 7369
5391, 5648, 5649, 5690, 5689, 7329, 7330, 7371, 7370
5392, 5649, 5650, 5691, 5690, 7330, 7331, 7372, 7371
5393, 5650, 5651, 5692, 5691, 7331, 7332, 7373, 7372
5394, 5651, 5652, 5693, 5692, 7332, 7333, 7374, 7373
5395, 5652, 5653, 5694, 5693, 7333, 7334, 7375, 7374
5396, 5653, 5654, 5695, 5694, 7334, 7335, 7376, 7375
5397, 5654, 5655, 5696, 5695, 7335, 7336, 7377, 7376
5398, 5655, 5656, 5697, 5696, 7336, 7337, 7378, 7377
5399, 5656, 5657, 5698, 5697, 7337, 7338, 7379, 7378
5400, 5657, 5658, 5699, 5698, 7338, 7339, 7380, 7379
5401, 5659, 5660, 5701, 5700, 7340, 7341, 7382, 7381
5402, 5660, 5661, 5702, 5701, 7341, 7342, 7383, 7382
5403, 5661, 5662, 5703, 5702, 7342, 7343, 7384, 7383
5404, 5662, 5663, 5704, 5703, 7343, 7344, 7385, 7384
5405, 5663, 5664, 5705, 5704, 7344, 7345, 7386, 7385
5406, 5664, 5665, 5706, 5705, 7345, 7346, 7387, 7386
5407, 5665, 5666, 5707, 5706, 7346, 7347, 7388, 7387
5408, 5666, 5667, 5708, 5707, 7347, 7348, 7389, 7388
5409, 5667, 5668, 5709, 5708, 7348, 7349, 7390, 7389
5410, 5668, 5669, 5710, 5709, 7349, 7350, 7391, 7390
5411, 5669, 5670, 5711, 5710, 7350, 7351, 7392, 7391
5412, 5670, 5671, 5712, 5711, 7351, 7352, 7393, 7392
5413, 5671, 5672, 5713, 5712, 7352, 7353, 7394, 7393
5414, 5672, 5673, 5714, 5713, 7353, 7354, 7395, 7394
5415, 5673, 5674, 5715, 5714, 7354, 7355, 7396, 7395
5416, 5674, 5675, 5716, 5715, 7355, 7356, 7397, 7396
5417, 5675, 5676, 5717, 5716, 7356, 7357, 7398, 7397
5418, 5676, 5677, 5718, 5717, 7357, 7358, 7399, 7398
5419, 5677, 5678, 5719, 5718, 7358, 7359, 7400, 7399
5420, 5678, 5679, 5720, 5719, 7359, 7360, 7401, 7400
5421, 5679, 5680, 5721, 5720, 7360, 7361, 7402, 7401
5422, 5680, 5681, 5722, 5721, 7361, 7362, 7403, 7402
5423, 5681, 5682, 5723, 5722, 7362, 7363, 7404, 7403
5424, 5682, 5683, 5724, 5723, 7363, 7364, 7405, 7404
5425, 5683, 5684, 5725, 5724, 7364, 7365, 7406, 7405
5426, 5684, 5685, 5726, 5725, 7365, 7366, 7407, 7406
5427, 5685, 5686, 5727, 5726, 7366, 7367, 7408, 7407
5428, 5686, 5687, 5728, 5727, 7367, 7368, 7409, 7408
5429, 5687, 5688, 5729, 5728, 7368, 7369, 7410, 7409
5430, 5688, 5689, 5730, 5729, 7369, 7370, 7411, 7410
5431, 5689, 5690, 5731, 5730, 7370, 7371, 7412, 7411
5432, 5690, 5691, 5732, 5731, 7371, 7372, 7413, 7412
5433, 5691, 5692, 5733, 5732, 7372, 7373, 7414, 7413
5434, 5692, 5693, 5734, 5733, 7373, 7374, 7415, 7414
5435, 5693, 5694, 5735, 5734, 7374, 7375, 7416, 7415
5436, 5694, 5695, 5736, 5735, 7375, 7376, 7417, 7416
5437, 5695, 5696, 5737, 5736, 7376, 7377, 7418, 7417
5438, 5696, 5697, 5738, 5737, 7377, 7378, 7419, 7418
5439, 5697, 5698, 5739, 5738, 7378, 7379, 7420, 7419
5440, 5698, 5699, 5740, 5739, 7379, 7380, 7421, 7420
5441, 5700, 5701, 5742, 5741, 7381, 7382, 7423, 7422
5442, 5701, 5702, 5743, 5742, 7382, 7383, 7424, 7423
5443, 5702, 5703, 5744, 5743, 7383, 7384, 7425, 7424
5444, 5703, 5704, 5745, 5744, 7384, 7385, 7426, 7425
5445, 5704, 5705, 5746, 5745, 7385, 7386, 7427, 7426
5446, 5705, 5706, 5747, 5746, 7386, 7387, 7428, 7427
5447, 5706, 5707, 5748, 5747, 7387, 7388, 7429, 7428
5448, 5707, 5708, 5749, 5748, 7388, 7389, 7430, 7429
5449, 5708, 5709, 5750, 5749, 7389, 7390, 7431, 7430
5450, 5709, 5710, 5751, 5750, 7390, 7391, 7432, 7431
5451, 5710, 5711, 5752, 5751, 7391, 7392, 7433, 7432
5452, 5711, 5712, 5753, 5752, 7392, 7393, 7434, 7433
5453, 5712, 5713, 5754, 5753, 7393, 7394, 7435, 7434
5454, 5713, 5714, 5755, 5754, 7394, 7395, 7436, 7435
5455, 5714, 5715, 5756, 5755, 7395, 7396, 7437, 7436
5456, 5715, 5716, 5757, 5756, 7396, 7397, 7438, 7437
5457, 5716, 5717, 5758, 5757, 7397, 7398, 7439, 7438
5458, 5717, 5718, 5759, 5758, 7398, 7399, 7440, 7439
5459, 5718, 5719, 5760, 5759, 7399, 7400, 7441, 7440
5460, 5719, 5720, 5761, 5760, 7400, 7401, 7442, 7441
5461, 5720, 5721, 5762, 5761, 7401, 7402, 7443, 7442
5462, 5721, 5722, 5763, 5762, 7402, 7403, 7444, 7443
5463, 5722, 5723, 5764, 5763, 7403, 7404, 7445, 7444
5464, 5723, 5724, 5765, 5764, 7404, 7405, 7446, 7445
5465, 5724, 5725, 5766, 5765, 7405, 7406, 7447, 7446
5466, 5725, 5726, 5767, 5766, 7406, 7407, 7448, 7447
5467, 5726, 5727, 5768, 5767, 7407, 7408, 7449, 7448
5468, 5727, 5728, 5769, 5768, 7408, 7409, 7450, 7449
5469, 5728, 5729, 5770, 5769, 7409, 7410, 7451, 7450
5470, 5729, 5730, 5771, 5770, 7410, 7411, 7452, 7451
5471, 5730, 5731, 5772, 5771, 7411, 7412, 7453, 7452
5472, 5731, 5732, 5773, 5772, 7412, 7413, 7454, 7453
5473, 5732, 5733, 5774, 5773, 7413, 7414, 7455, 7454
5474, 5733, 5734, 5775, 5774, 7414, 7415, 7456, 7455
5475, 5734, 5735, 5776, 5775, 7415, 7416, 7457, 7456
5476, 5735, 5736, 5777, 5776, 7416, 7417, 7458, 7457
5477, 5736, 5737, 5778, 5777, 7417, 7418, 7459, 7458
5478, 5737, 5738, 5779, 5778, 7418, 7419, 7460, 7459
5479, 5738, 5739, 5780, 5779, 7419, 7420, 7461, 7460
5480, 5739, 5740, 5781, 5780, 7420, 7421, 7462, 7461
5481, 5741, 5742, 5783, 5782, 7422, 7423, 7464, 7463
5482, 5742, 5743, 5784, 5783, 7423, 7424, 7465, 7464
5483, 5743, 5744, 5785, 5784, 7424, 7425, 7466, 7465
5484, 5744, 5745, 5786, 5785, 7425, 7426, 7467, 7466
5485, 5745, 5746, 5787, 5786, 7426, 7427, 7468, 7467
5486, 5746, 5747, 5788, 5787, 7427, 7428, 7469, 7468
5487, 5747, 5748, 5789, 5788, 7428, 7429, 7470, 7469
5488, 5748, 5749, 5790, 5789, 7429, 7430, 7471, 7470
5489, 5749, 5750, 5791, 5790, 7430, 7431, 7472, 7471
5490, 5750, 5751, 5792, 5791, 7431, 7432, 7473, 7472
5491, 5751, 5752, 5793, 5792, 7432, 7433, 7474, 7473
5492, 5752, 5753, 5794, 5793, 7433, 7434, 7475, 7474
5493, 5753, 5754, 5795, 5794, 7434, 7435, 7476, 7475
5494, 5754, 5755, 5796, 5795, 7435, 7436, 7477, 7476
5495, 5755, 5756, 5797, 5796, 7436, 7437, 7478, 7477
5496, 5756, 5757, 5798, 5797, 7437, 7438, 7479, 7478
5497, 5757, 5758, 5799, 5798, 7438, 7439, 7480, 7479
5498, 5758, 5759, 5800, 5799, 7439, 7440, 7481, 7480
5499, 5759, 5760, 5801, 5800, 7440, 7441, 7482, 7481
5500, 5760, 5761, 5802, 5801, 7441, 7442, 7483, 7482
5501, 5761, 5762, 5803, 5802, 7442, 7443, 7484, 7483
5502, 5762, 5763, 5804, 5803, 7443, 7444, 7485, 7484
5503, 5763, 5764, 5805, 5804, 7444, 7445, 7486, 7485
5504, 5764, 5765, 5806, 5805, 7445, 7446, 7487, 7486
5505, 5765, 5766, 5807, 5806, 7446, 7447, 7488, 7487
5506, 5766, 5767, 5808, 5807, 7447, 7448, 7489, 7488
5507, 5767, 5768, 5809, 5808, 7448, 7449, 7490, 7489
5508, 5768, 5769, 5810, 5809, 7449, 7450, 7491, 7490
5509, 5769, 5770, 5811, 5810, 7450, 7451, 7492, 7491
5510, 5770, 5771, 5812, 5811, 7451, 7452, 7493, 7492
5511, 5771, 5772, 5813, 5812, 7452, 7453, 7494, 7493
5512, 5772, 5773, 5814, 5813, 7453, 7454, 7495, 7494
5513, 5773, 5774, 5815, 5814, 7454, 7455, 7496, 7495
5514, 5774, 5775, 5816, 5815, 7455, 7456, 7497, 7496
5515, 5775, 5776, 5817, 5816, 7456, 7457, 7498, 7497
5516, 5776, 5777, 5818, 5817, 7457, 7458, 7499, 7498
5517, 5777, 5778, 5819, 5818, 7458, 7459, 7500, 7499
5518, 5778, 5779, 5820, 5819, 7459, 7460, 7501, 7500
5519, 5779, 5780, 5821, 5820, 7460, 7461, 7502, 7501
5520, 5780, 5781, 5822, 5821, 7461, 7462, 7503, 7502
5521, 5782, 5783, 5824, 5823, 7463, 7464, 7505, 7504
5522, 5783, 5784, 5825, 5824, 7464, 7465, 7506, 7505
5523, 5784, 5785, 5826, 5825, 7465, 7466, 7507, 7506
5524, 5785, 5786, 5827, 5826, 7466, 7467, 7508, 7507
5525, 5786, 5787, 5828, 5827, 7467, 7468, 7509, 7508
5526, 5787, 5788, 5829, 5828, 7468, 7469, 7510, 7509
5527, 5788, 5789, 5830, 5829, 7469, 7470, 7511, 7510
5528, 5789, 5790, 5831, 5830, 7470, 7471, 7512, 7511
5529, 5790, 5791, 5832, 5831, 7471, 7472, 7513, 7512
5530, 5791, 5792, 5833, 5832, 7472, 7473, 7514, 7513
5531, 5792, 5793, 5834, 5833, 7473, 7474, 7515, 7514
5532, 5793, 5794, 5835, 5834, 7474, 7475, 7516, 7515
5533, 5794, 5795, 5836, 5835, 7475, 7476, 7517, 7516
5534, 5795, 5796, 5837, 5836, 7476, 7477, 7518, 7517
5535, 5796, 5797, 5838, 5837, 7477, 7478, 7519, 7518
5536, 5797, 5798, 5839, 5838, 7478, 7479, 7520, 7519
5537, 5798, 5799, 5840, 5839, 7479, 7480, 7521, 7520
5538, 5799, 5800, 5841, 5840, 7480, 7481, 7522, 7521
5539, 5800, 5801, 5842, 5841, 7481, 7482, 7523, 7522
5540, 5801, 5802, 5843, 5842, 7482, 7483, 7524, 7523
5541, 5802, 5803, 5844, 5843, 7483, 7484, 7525, 7524
5542, 5803, 5804, 5845, 5844, 7484, 7485, 7526, 7525
5543, 5804, 5805, 5846, 5845, 7485, 7486, 7527, 7526
5544, 5805, 5806, 5847, 5846, 7486, 7487, 7528, 7527
5545, 5806, 5807, 5848, 5847, 7487, 7488, 7529, 7528
5546, 5807, 5808, 5849, 5848, 7488, 7489, 7530, 7529
5547, 5808, 5809, 5850, 5849, 7489, 7490, 7531, 7530
5548, 5809, 5810, 5851, 5850, 7490, 7491, 7532, 7531
5549, 5810, 5811, 5852, 5851, 7491, 7492, 7533, 7532
5550, 5811, 5812, 5853, 5852, 7492, 7493, 7534, 7533
5551, 5812, 5813, 5854, 5853, 7493, 7494, 7535, 7534
5552, 5813, 5814, 5855, 5854, 7494, 7495, 7536, 7535
5553, 5814, 5815, 5856, 5855, 7495, 7496, 7537, 7536
5554, 5815, 5816, 5857, 5856, 7496, 7497, 7538, 7537
5555, 5816, 5817, 5858, 5857, 7497, 7498, 7539, 7538
5556, 5817, 5818, 5859, 5858, 7498, 7499, 7540, 7539
5557, 5818, 5819, 5860, 5859, 7499, 7500, 7541, 7540
5558, 5819, 5820, 5861, 5860, 7500, 7501, 7542, 7541
5559, 5820, 5821, 5862, 5861, 7501, 7502, 7543, 7542
5560, 5821, 5822, 5863, 5862, 7502, 7503, 7544, 7543
5561, 5823, 5824, 5865, 5864, 7504, 7505, 7546, 7545
5562, 5824, 5825, 5866, 5865, 7505, 7506, 7547, 7546
5563, 5825, 5826, 5867, 5866, 7506, 7507, 7548, 7547
5564, 5826, 5827, 5868, 5867, 7507, 7508, 7549, 7548
5565, 5827, 5828, 5869, 5868, 7508, 7509, 7550, 7549
5566, 5828, 5829, 5870, 5869, 7509, 7510, 7551, 7550
5567, 5829, 5830, 5871, 5870, 7510, 7511, 7552, 7551
5568, 5830, 5831, 5872, 5871, 7511, 7512, 7553, 7552
5569, 5831, 5832, 5873, 5872, 7512, 7513, 7554, 7553
5570, 5832, 5833, 5874, 5873, 7513, 7514, 7555, 7554
5571, 5833, 5834, 5875, 5874, 7514, 7515, 7556, 7555
5572, 5834, 5835, 5876, 5875, 7515, 7516, 7557, 7556
5573, 5835, 5836, 5877, 5876, 7516, 7517, 7558, 7557
5574, 5836, 5837, 5878, 5877, 7517, 7518, 7559, 7558
5575, 5837, 5838, 5879, 5878, 7518, 7519, 7560, 7559
5576, 5838, 5839, 5880, 5879, 7519, 7520, 7561, 7560
5577, 5839, 5840, 5881, 5880, 7520, 7521, 7562, 7561
5578, 5840, 5841, 5882, 5881, 7521, 7522, 7563, 7562
5579, 5841, 5842, 5883, 5882, 7522, 7523, 7564, 7563
5580, 5842, 5843, 5884, 5883, 7523, 7524, 7565, 7564
5581, 5843, 5844, 5885, 5884, 7524, 7525, 7566, 7565
5582, 5844, 5845, 5886, 5885, 7525, 7526, 7567, 7566
5583, 5845, 5846, 5887, 5886, 7526, 7527, 7568, 7567
5584, 5846, 5847, 5888, 5887, 7527, 7528, 7569, 7568
5585, 5847, 5848, 5889, 5888, 7528, 7529, 7570, 7569
5586, 5848, 5849, 5890, 5889, 7529, 7530, 7571, 7570
5587, 5849, 5850, 5891, 5890, 7530, 7531, 7572, 7571
5588, 5850, 5851, 5892, 5891, 7531, 7532, 7573, 7572
5589, 5851, 5852, 5893, 5892, 7532, 7533, 7574, 7573
5590, 5852, 5853, 5894, 5893, 7533, 7534, 7575, 7574
5591, 5853, 5854, 5895, 5894, 7534, 7535, 7576, 7575
5592, 5854, 5855, 5896, 5895, 7535, 7536, 7577, 7576
5593, 5855, 5856, 5897, 5896, 7536, 7537, 7578, 7577
5594, 5856, 5857, 5898, 5897, 7537, 7538, 7579, 7578
5595, 5857, 5858, 5899, 5898, 7538, 7539, 7580, 7579
5596, 5858, 5859, 5900, 5899, 7539, 7540, 7581, 7580
5597, 5859, 5860, 5901, 5900, 7540, 7541, 7582, 7581
5598, 5860, 5861, 5902, 5901, 7541, 7542, 7583, 7582
5599, 5861, 5862, 5903, 5902, 7542, 7543, 7584, 7583
5600, 5862, 5863, 5904, 5903, 7543, 7544, 7585, 7584
5601, 5864, 5865, 5906, 5905, 7545, 7546, 7587, 7586
5602, 5865, 5866, 5907, 5906, 7546, 7547, 7588, 7587
5603, 5866, 5867, 5908, 5907, 7547, 7548, 7589, 7588
5604, 5867, 5868, 5909, 5908, 7548, 7549, 7590, 7589
5605, 5868, 5869, 5910, 5909, 7549, 7550, 7591, 7590
5606, 5869, 5870, 5911, 5910, 7550, 7551, 7592, 7591
5607, 5870, 5871, 5912, 5911, 7551, 7552, 7593, 7592
5608, 5871, 5872, 5913, 5912, 7552, 7553, 7594, 7593
5609, 5872, 5873, 5914, 5913, 7553, 7554, 7595, 7594
5610, 5873, 5874, 5915, 5914, 7554, 7555, 7596, 7595
5611, 5874, 5875, 5916, 5915, 7555, 7556, 7597, 7596
5612, 5875, 5876, 5917, 5916, 7556, 7557, 7598, 7597
5613, 5876, 5877, 5918, 5917, 7557, 7558, 7599, 7598
5614, 5877, 5878, 5919, 5918, 7558, 7559, 7600, 7599
5615, 5878, 5879, 5920, 5919, 7559, 7560, 7601, 7600
5616, 5879, 5880, 5921, 5920, 7560, 7561, 7602, 7601
5617, 5880, 5881, 5922, 5921, 7561, 7562, 7603, 7602
5618, 5881, 5882, 5923, 5922, 7562, 7563, 7604, 7603
5619, 5882, 5883, 5924, 5923, 7563, 7564, 7605, 7604
5620, 5883, 5884, 5925, 5924, 7564, 7565, 7606, 7605
5621, 5884, 5885, 5926, 5925, 7565, 7566, 7607, 7606
5622, 5885, 5886, 5927, 5926, 7566, 7567, 7608, 7607
5623, 5886, 5887, 5928, 5927, 7567, 7568, 7609, 7608
5624, 5887, 5888, 5929, 5928, 7568, 7569, 7610, 7609
5625, 5888, 5889, 5930, 5929, 7569, 7570, 7611, 7610
5626, 5889, 5890, 5931, 5930, 7570, 7571, 7612, 7611
5627, 5890, 5891, 5932, 5931, 7571, 7572, 7613, 7612
5628, 5891, 5892, 5933, 5932, 7572, 7573, 7614, 7613
5629, 5892, 5893, 5934, 5933, 7573, 7574, 7615, 7614
5630, 5893, 5894, 5935, 5934, 7574, 7575, 7616, 7615
5631, 5894, 5895, 5936, 5935, 7575, 7576, 7617, 7616
5632, 5895, 5896, 5937, 5936, 7576, 7577, 7618, 7617
5633, 5896, 5897, 5938, 5937, 7577, 7578, 7619, 7618
5634, 5897, 5898, 5939, 5938, 7578, 7579, 7620, 7619
5635, 5898, 5899, 5940, 5939, 7579, 7580, 7621, 7620
5636, 5899, 5900, 5941, 5940, 7580, 7581, 7622, 7621
5637, 5900, 5901, 5942, 5941, 7581, 7582, 7623, 7622
5638, 5901, 5902, 5943, 5942, 7582, 7583, 7624, 7623
5639, 5902, 5903, 5944, 5943, 7583, 7584, 7625, 7624
5640, 5903, 5904, 5945, 5944, 7584, 7585, 7626, 7625
5641, 5905, 5906, 5947, 5946, 7586, 7587, 7628, 7627
5642, 5906, 5907, 5948, 5947, 7587, 7588, 7629, 7628
5643, 5907, 5908, 5949, 5948, 7588, 7589, 7630, 7629
5644, 5908, 5909, 5950, 5949, 7589, 7590, 7631, 7630
5645, 5909, 5910, 5951, 5950, 7590, 7591, 7632, 7631
5646, 5910, 5911, 5952, 5951, 7591, 7592, 7633, 7632
5647, 5911, 5912, 5953, 5952, 7592, 7593, 7634, 7633
5648, 5912, 5913, 5954, 5953, 7593, 7594, 7635, 7634
5649, 5913, 5914, 5955, 5954, 7594, 7595, 7636, 7635
5650, 5914, 5915, 5956, 5955, 7595, 7596, 7637, 7636
5651, 5915, 5916, 5957, 5956, 7596, 7597, 7638, 7637
5652, 5916, 5917, 5958, 5957, 7597, 7598, 7639, 7638
5653, 5917, 5918, 5959, 5958, 7598, 7599, 7640, 7639
5654, 5918, 5919, 5960, 5959, 7599, 7600, 7641, 7640
5655, 5919, 5920, 5961, 5960, 7600, 7601, 7642, 7641
5656, 5920, 5921, 5962, 5961, 7601, 7602, 7643, 7642
5657, 5921, 5922, 5963, 5962, 7602, 7603, 7644, 7643
5658, 5922, 5923, 5964, 5963, 7603, 7604, 7645, 7644
5659, 5923, 5924, 5965, 5964, 7604, 7605, 7646, 7645
5660, 5924, 5925, 5966, 5965, 7605, 7606, 7647, 7646
5661, 5925, 5926, 5967, 5966, 7606, 7607, 7648, 7647
5662, 5926, 5927, 5968, 5967, 7607, 7608, 7649, 7648
5663, 5927, 5928, 5969, 5968, 7608, 7609, 7650, 7649
5664, 5928, 5929, 5970, 5969, 7609, 7610, 7651, 7650
5665, 5929, 5930, 5971, 5970, 7610, 7611, 7652, 7651
5666, 5930, 5931, 5972, 5971, 7611, 7612, 7653, 7652
5667, 5931, 5932, 5973, 5972, 7612, 7613, 7654, 7653
5668, 5932, 5933, 5974, 5973, 7613, 7614, 7655, 7654
5669, 5933, 5934, 5975, 5974, 7614, 7615, 7656, 7655
5670, 5934, 5935, 5976, 5975, 7615, 7616, 7657, 7656
5671, 5935, 5936, 5977, 5976, 7616, 7617, 7658, 7657
5672, 5936, 5937, 5978, 5977, 7617, 7618, 7659, 7658
5673, 5937, 5938, 5979, 5978, 7618, 7619, 7660, 7659
5674, 5938, 5939, 5980, 5979, 7619, 7620, 7661, 7660
5675, 5939, 5940, 5981, 5980, 7620, 7621, 7662, 7661
5676, 5940, 5941, 5982, 5981, 7621, 7622, 7663, 7662
5677, 5941, 5942, 5983, 5982, 7622, 7623, 7664, 7663
5678, 5942, 5943, 5984, 5983, 7623, 7624, 7665, 7664
5679, 5943, 5944, 5985, 5984, 7624, 7625, 7666, 7665
5680, 5944, 5945, 5986, 5985, 7625, 7626, 7667, 7666
5681, 5946, 5947, 5988, 5987, 7627, 7628, 7669, 7668
5682, 5947, 5948, 5989, 5988, 7628, 7629, 7670, 7669
5683, 5948, 5949, 5990, 5989, 7629, 7630, 7671, 7670
5684, 5949, 5950, 5991, 5990, 7630, 7631, 7672, 7671
5685, 5950, 5951, 5992, 5991, 7631, 7632, 7673, 7672
5686, 5951, 5952, 5993, 5992, 7632, 7633, 7674, 7673
5687, 5952, 5953, 5994, 5993, 7633, 7634, 7675, 7674
5688, 5953, 5954, 5995, 5994, 7634, 7635, 7676, 7675
5689, 5954, 5955, 5996, 5995, 7635, 7636, 7677, 7676
5690, 5955, 5956, 5997, 5996, 7636, 7637, 7678, 7677
5691, 5956, 5957, 5998, 5997, 7637, 7638, 7679, 7678
5692, 5957, 5958, 5999, 5998, 7638, 7639, 7680, 7679
5693, 5958, 5959, 6000, 5999, 7639, 7640, 7681, 7680
5694, 5959, 5960, 6001, 6000, 7640, 7641, 7682, 7681
5695, 5960, 5961, 6002, 6001, 7641, 7642, 7683, 7682
5696, 5961, 5962, 6003, 6002, 7642, 7643, 7684, 7683
5697, 5962, 5963, 6004, 6003, 7643, 7644, 7685, 7684
5698, 5963, 5964, 6005, 6004, 7644, 7645, 7686, 7685
5699, 5964, 5965, 6006, 6005, 7645, 7646, 7687, 7686
5700, 5965, 5966, 6007, 6006, 7646, 7647, 7688, 7687
5701, 5966, 5967, 6008, 6007, 7647, 7648, 7689, 7688
5702, 5967, 5968, 6009, 6008, 7648, 7649, 7690, 7689
5703, 5968, 5969, 6010, 6009, 7649, 7650, 7691, 7690
5704, 5969, 5970, 6011, 6010, 7650, 7651, 7692, 7691
5705, 5970, 5971, 6012, 6011, 7651, 7652, 7693, 7692
5706, 5971, 5972, 6013, 6012, 7652, 7653, 7694, 7693
5707, 5972, 5973, 6014, 6013, 7653, 7654, 7695, 7694
5708, 5973, 5974, 6015, 6014, 7654, 7655, 7696, 7695
5709, 5974, 5975, 6016, 6015, 7655, 7656, 7697, 7696
5710, 5975, 5976, 6017, 6016, 7656, 7657, 7698, 7697
5711, 5976, 5977, 6018, 6017, 7657, 7658, 7699, 7698
5712, 5977, 5978, 6019, 6018, 7658, 7659, 7700, 7699
5713, 5978, 5979, 6020, 6019, 7659, 7660, 7701, 7700
5714, 5979, 5980, 6021, 6020, 7660, 7661, 7702, 7701
5715, 5980, 5981, 6022, 6021, 7661, 7662, 7703, 7702
5716, 5981, 5982, 6023, 6022, 7662, 7663, 7704, 7703
5717, 5982, 5983, 6024, 6023, 7663, 7664, 7705, 7704
5718, 5983, 5984, 6025, 6024, 7664, 7665, 7706, 7705
5719, 5984, 5985, 6026, 6025, 7665, 7666, 7707, 7706
5720, 5985, 5986, 6027, 6026, 7666, 7667, 7708, 7707
5721, 5987, 5988, 6029, 6028, 7668, 7669, 7710, 7709
5722, 5988, 5989, 6030, 6029, 7669, 7670, 7711, 7710
5723, 5989, 5990, 6031, 6030, 7670, 7671, 7712, 7711
5724, 5990, 5991, 6032, 6031, 7671, 7672, 7713, 7712
5725, 5991, 5992, 6033, 6032, 7672, 7673, 7714, 7713
5726, 5992, 5993, 6034, 6033, 7673, 7674, 7715, 7714
5727, 5993, 5994, 6035, 6034, 7674, 7675, 7716, 7715
5728, 5994, 5995, 6036, 6035, 7675, 7676, 7717, 7716
5729, 5995, 5996, 6037, 6036, 7676, 7677, 7718, 7717
5730, 5996, 5997, 6038, 6037, 7677, 7678, 7719, 7718
5731, 5997, 5998, 6039, 6038, 7678, 7679, 7720, 7719
5732, 5998, 5999, 6040, 6039, 7679, 7680, 7721, 7720
5733, 5999, 6000, 6041, 6040, 7680, 7681, 7722, 7721
5734, 6000, 6001, 6042, 6041, 7681, 7682, 7723, 7722
5735, 6001, 6002, 6043, 6042, 7682, 7683, 7724, 7723
5736, 6002, 6003, 6044, 6043, 7683, 7684, 7725, 7724
5737, 6003, 6004, 6045, 6044, 7684, 7685, 7726, 7725
5738, 6004, 6005, 6046, 6045, 7685, 7686, 7727, 7726
5739, 6005, 6006, 6047, 6046, 7686, 7687, 7728, 7727
5740, 6006, 6007, 6048, 6047, 7687, 7688, 7729, 7728
5741, 6007, 6008, 6049, 6048, 7688, 7689, 7730, 7729
5742, 6008, 6009, 6050, 6049, 7689, 7690, 7731, 7730
5743, 6009, 6010, 6051, 6050, 7690, 7691, 7732, 7731
5744, 6010, 6011, 6052, 6051, 7691, 7692, 7733, 7732
5745, 6011, 6012, 6053, 6052, 7692, 7693, 7734, 7733
5746, 6012, 6013, 6054, 6053, 7693, 7694, 7735, 7734
5747, 6013, 6014, 6055, 6054, 7694, 7695, 7736, 7735
5748, 6014, 6015, 6056, 6055, 7695, 7696, 7737, 7736
5749, 6015, 6016, 6057, 6056, 7696, 7697, 7738, 7737
5750, 6016, 6017, 6058, 6057, 7697, 7698, 7739, 7738
5751, 6017, 6018, 6059, 6058, 7698, 7699, 7740, 7739
5752, 6018, 6019, 6060, 6059, 7699, 7700, 7741, 7740
5753, 6019, 6020, 6061, 6060, 7700, 7701, 7742, 7741
5754, 6020, 6021, 6062, 6061, 7701, 7702, 7743, 7742
5755, 6021, 6022, 6063, 6062, 7702, 7703, 7744, 7743
5756, 6022, 6023, 6064, 6063, 7703, 7704, 7745, 7744
5757, 6023, 6024, 6065, 6064, 7704, 7705, 7746, 7745
5758, 6024, 6025, 6066, 6065, 7705, 7706, 7747, 7746
5759, 6025, 6026, 6067, 6066, 7706, 7707, 7748, 7747
5760, 6026, 6027, 6068, 6067, 7707, 7708, 7749, 7748
5761, 6028, 6029, 6070, 6069, 7709, 7710, 7751, 7750
5762, 6029, 6030, 6071, 6070, 7710, 7711, 7752, 7751
5763, 6030, 6031, 6072, 6071, 7711, 7712, 7753, 7752
5764, 6031, 6032, 6073, 6072, 7712, 7713, 7754, 7753
5765, 6032, 6033, 6074, 6073, 7713, 7714, 7755, 7754
5766, 6033, 6034, 6075, 6074, 7714, 7715, 7756, 7755
5767, 6034, 6035, 6076, 6075, 7715, 7716, 7757, 7756
5768, 6035, 6036, 6077, 6076, 7716, 7717, 7758, 7757
5769, 6036, 6037, 6078, 6077, 7717, 7718, 7759, 7758
5770, 6037, 6038, 6079, 6078, 7718, 7719, 7760, 7759
5771, 6038, 6039, 6080, 6079, 7719, 7720, 7761, 7760
5772, 6039, 6040, 6081, 6080, 7720, 7721, 7762, 7761
5773, 6040, 6041, 6082, 6081, 7721, 7722, 7763, 7762
5774, 6041, 6042, 6083, 6082, 7722, 7723, 7764, 7763
5775, 6042, 6043, 6084, 6083, 7723, 7724, 7765, 7764
5776, 6043, 6044, 6085, 6084, 7724, 7725, 7766, 7765
5777, 6044, 6045, 6086, 6085, 7725, 7726, 7767, 7766
5778, 6045, 6046, 6087, 6086, 7726, 7727, 7768, 7767
5779, 6046, 6047, 6088, 6087, 7727, 7728, 7769, 7768
5780, 6047, 6048, 6089, 6088, 7728, 7729, 7770, 7769
5781, 6048, 6049, 6090, 6089, 7729, 7730, 7771, 7770
5782, 6049, 6050, 6091, 6090, 7730, 7731, 7772, 7771
5783, 6050, 6051, 6092, 6091, 7731, 7732, 7773, 7772
5784, 6051, 6052, 6093, 6092, 7732, 7733, 7774, 7773
5785, 6052, 6053, 6094, 6093, 7733, 7734, 7775, 7774
5786, 6053, 6054, 6095, 6094, 7734, 7735, 7776, 7775
5787, 6054, 6055, 6096, 6095, 7735, 7736, 7777, 7776
5788, 6055, 6056, 6097, 6096, 7736, 7737, 7778, 7777
5789, 6056, 6057, 6098, 6097, 7737, 7738, 7779, 7778
5790, 6057, 6058, 6099, 6098, 7738, 7739, 7780, 7779
5791, 6058, 6059, 6100, 6099, 7739, 7740, 7781, 7780
5792, 6059, 6060, 6101, 6100, 7740, 7741, 7782, 7781
5793, 6060, 6061, 6102, 6101, 7741, 7742, 7783, 7782
5794, 6061, 6062, 6103, 6102, 7742, 7743, 7784, 7783
5795, 6062, 6063, 6104, 6103, 7743, 7744, 7785, 7784
5796, 6063, 6064, 6105, 6104, 7744, 7745, 7786, 7785
5797, 6064, 6065, 6106, 6105, 7745, 7746, 7787, 7786
5798, 6065, 6066, 6107, 6106, 7746, 7747, 7788, 7787
5799, 6066, 6067, 6108, 6107, 7747, 7748, 7789, 7788
5800, 6067, 6068, 6109, 6108, 7748, 7749, 7790, 7789
5801, 6069, 6070, 6111, 6110, 7750, 7751, 7792, 7791
5802, 6070, 6071, 6112, 6111, 7751, 7752, 7793, 7792
5803, 6071, 6072, 6113, 6112, 7752, 7753, 7794, 7793
5804, 6072, 6073, 6114, 6113, 7753, 7754, 7795, 7794
5805, 6073, 6074, 6115, 6114, 7754, 7755, 7796, 7795
5806, 6074, 6075, 6116, 6115, 7755, 7756, 7797, 7796
5807, 6075, 6076, 6117, 6116, 7756, 7757, 7798, 7797
5808, 6076, 6077, 6118, 6117, 7757, 7758, 7799, 7798
5809, 6077, 6078, 6119, 6118, 7758, 7759, 7800, 7799
5810, 6078, 6079, 6120, 6119, 7759, 7760, 7801, 7800
5811, 6079, 6080, 6121, 6120, 7760, 7761, 7802, 7801
5812, 6080, 6081, 6122, 6121, 7761, 7762, 7803, 7802
5813, 6081, 6082, 6123, 6122, 7762, 7763, 7804, 7803
5814, 6082, 6083, 6124, 6123, 7763, 7764, 7805, 7804
5815, 6083, 6084, 6125, 6124, 7764, 7765, 7806, 7805
5816, 6084, 6085, 6126, 6125, 7765, 7766, 7807, 7806
5817, 6085, 6086, 6127, 6126, 7766, 7767, 7808, 7807
5818, 6086, 6087, 6128, 6127, 7767, 7768, 7809, 7808
5819, 6087, 6088, 6129, 6128, 7768, 7769, 7810, 7809
5820, 6088, 6089, 6130, 6129, 7769, 7770, 7811, 7810
5821, 6089, 6090, 6131, 6130, 7770, 7771, 7812, 7811
5822, 6090, 6091, 6132, 6131, 7771, 7772, 7813, 7812
5823, 6091, 6092, 6133, 6132, 7772, 7773, 7814, 7813
5824, 6092, 6093, 6134, 6133, 7773, 7774, 7815, 7814
5825, 6093, 6094, 6135, 6134, 7774, 7775, 7816, 7815
5826, 6094, 6095, 6136, 6135, 7775, 7776, 7817, 7816
5827, 6095, 6096, 6137, 6136, 7776, 7777, 7818, 7817
5828, 6096, 6097, 6138, 6137, 7777, 7778, 7819, 7818
5829, 6097, 6098, 6139, 6138, 7778, 7779, 7820, 7819
5830, 6098, 6099, 6140, 6139, 7779, 7780, 7821, 7820
5831, 6099, 6100, 6141, 6140, 7780, 7781, 7822, 7821
5832, 6100, 6101, 6142, 6141, 7781, 7782, 7823, 7822
5833, 6101, 6102, 6143, 6142, 7782, 7783, 7824, 7823
5834, 6102, 6103, 6144, 6143, 7783, 7784, 7825, 7824
5835, 6103, 6104, 6145, 6144, 7784, 7785, 7826, 7825
5836, 6104, 6105, 6146, 6145, 7785, 7786, 7827, 7826
5837, 6105, 6106, 6147, 6146, 7786, 7787, 7828, 7827
5838, 6106, 6107, 6148, 6147, 7787, 7788, 7829, 7828
5839, 6107, 6108, 6149, 6148, 7788, 7789, 7830, 7829
5840, 6108, 6109, 6150, 6149, 7789, 7790, 7831, 7830
5841, 6110, 6111, 6152, 6151, 7791, 7792, 7833, 7832
5842, 6111, 6112, 6153, 6152, 7792, 7793, 7834, 7833
5843, 6112, 6113, 6154, 6153, 7793, 7794, 7835, 7834
5844, 6113, 6114, 6155, 6154, 7794, 7795, 7836, 7835
5845, 6114, 6115, 6156, 6155, 7795, 7796, 7837, 7836
5846, 6115, 6116, 6157, 6156, 7796, 7797, 7838, 7837
5847, 6116, 6117, 6158, 6157, 7797, 7798, 7839, 7838
5848, 6117, 6118, 6159, 6158, 7798, 7799, 7840, 7839
5849, 6118, 6119, 6160, 6159, 7799, 7800, 7841, 7840
5850, 6119, 6120, 6161, 6160, 7800, 7801, 7842, 7841
5851, 6120, 6121, 6162, 6161, 7801, 7802, 7843, 7842
5852, 6121, 6122, 6163, 6162, 7802, 7803, 7844, 7843
5853, 6122, 6123, 6164, 6163, 7803, 7804, 7845, 7844
5854, 6123, 6124, 6165, 6164, 7804, 7805, 7846, 7845
5855, 6124, 6125, 6166, 6165, 7805, 7806, 7847, 7846
5856, 6125, 6126, 6167, 6166, 7806, 7807, 7848, 7847
5857, 6126, 6127, 6168, 6167, 7807, 7808, 7849, 7848
5858, 6127, 6128, 6169, 6168, 7808, 7809, 7850, 7849
5859, 6128, 6129, 6170, 6169, 7809, 7810, 7851, 7850
5860, 6129, 6130, 6171, 6170, 7810, 7811, 7852, 7851
5861, 6130, 6131, 6172, 6171, 7811, 7812, 7853, 7852
5862, 6131, 6132, 6173, 6172, 7812, 7813, 7854, 7853
5863, 6132, 6133, 6174, 6173, 7813, 7814, 7855, 7854
5864, 6133, 6134, 6175, 6174, 7814, 7815, 7856, 7855
5865, 6134, 6135, 6176, 6175, 7815, 7816, 7857, 7856
5866, 6135, 6136, 6177, 6176, 7816, 7817, 7858, 7857
5867, 6136, 6137, 6178, 6177, 7817, 7818, 7859, 7858
5868, 6137, 6138, 6179, 6178, 7818, 7819, 7860, 7859
5869, 6138, 6139, 6180, 6179, 7819, 7820, 7861, 7860
5870, 6139, 6140, 6181, 6180, 7820, 7821, 7862, 7861
5871, 6140, 6141, 6182, 6181, 7821, 7822, 7863, 7862
5872, 6141, 6142, 6183, 6182, 7822, 7823, 7864, 7863
5873, 6142, 6143, 6184, 6183, 7823, 7824, 7865, 7864
5874, 6143, 6144, 6185, 6184, 7824, 7825, 7866, 7865
5875, 6144, 6145, 6186, 6185, 7825, 7826, 7867, 7866
5876, 6145, 6146, 6187, 6186, 7826, 7827, 7868, 7867
5877, 6146, 6147, 6188, 6187, 7827, 7828, 7869, 7868
5878, 6147, 6148, 6189, 6188, 7828, 7829, 7870, 7869
5879, 6148, 6149, 6190, 6189, 7829, 7830, 7871, 7870
5880, 6149, 6150, 6191, 6190, 7830, 7831, 7872, 7871
5881, 6151, 6152, 6193, 6192, 7832, 7833, 7874, 7873
5882, 6152, 6153, 6194, 6193, 7833, 7834, 7875, 7874
5883, 6153, 6154, 6195, 6194, 7834, 7835, 7876, 7875
5884, 6154, 6155, 6196, 6195, 7835, 7836, 7877, 7876
5885, 6155, 6156, 6197, 6196, 7836, 7837, 7878, 7877
5886, 6156, 6157, 6198, 6197, 7837, 7838, 7879, 7878
5887, 6157, 6158, 6199, 6198, 7838, 7839, 7880, 7879
5888, 6158, 6159, 6200, 6199, 7839, 7840, 7881, 7880
5889, 6159, 6160, 6201, 6200, 7840, 7841, 7882, 7881
5890, 6160, 6161, 6202, 6201, 7841, 7842, 7883, 7882
5891, 6161, 6162, 6203, 6202, 7842, 7843, 7884, 7883
5892, 6162, 6163, 6204, 6203, 7843, 7844, 7885, 7884
5893, 6163, 6164, 6205, 6204, 7844, 7845, 7886, 7885
5894, 6164, 6165, 6206, 6205, 7845, 7846, 7887, 7886
5895, 6165, 6166, 6207, 6206, 7846, 7847, 7888, 7887
5896, 6166, 6167, 6208, 6207, 7847, 7848, 7889, 7888
5897, 6167, 6168, 6209, 6208, 7848, 7849, 7890, 7889
5898, 6168, 6169, 6210, 6209, 7849, 7850, 7891, 7890
5899, 6169, 6170, 6211, 6210, 7850, 7851, 7892, 7891
5900, 6170, 6171, 6212, 6211, 7851, 7852, 7893, 7892
5901, 6171, 6172, 6213, 6212, 7852, 7853, 7894, 7893
5902, 6172, 6173, 6214, 6213, 7853, 7854, 7895, 7894
5903, 6173, 6174, 6215, 6214, 7854, 7855, 7896, 7895
5904, 6174, 6175, 6216, 6215, 7855, 7856, 7897, 7896
5905, 6175, 6176, 6217, 6216, 7856, 7857, 7898, 7897
5906, 6176, 6177, 6218, 6217, 7857, 7858, 7899, 7898
5907, 6177, 6178, 6219, 6218, 7858, 7859, 7900, 7899
5908, 6178, 6179, 6220, 6219, 7859, 7860, 7901, 7900
5909, 6179, 6180, 6221, 6220, 7860, 7861, 7902, 7901
5910, 6180, 6181, 6222, 6221, 7861, 7862, 7903, 7902
5911, 6181, 6182, 6223, 6222, 7862, 7863, 7904, 7903
5912, 6182, 6183, 6224, 6223, 7863, 7864, 7905, 7904
5913, 6183, 6184, 6225, 6224, 7864, 7865, 7906, 7905
5914, 6184, 6185, 6226, 6225, 7865, 7866, 7907, 7906
5915, 6185, 6186, 6227, 6226, 7866, 7867, 7908, 7907
5916, 6186, 6187, 6228, 6227, 7867, 7868, 7909, 7908
5917, 6187, 6188, 6229, 6228, 7868, 7869, 7910, 7909
5918, 6188, 6189, 6230, 6229, 7869, 7870, 7911, 7910
5919, 6189, 6190, 6231, 6230, 7870, 7871, 7912, 7911
5920, 6190, 6191, 6232, 6231, 7871, 7872, 7913, 7912
5921, 6192, 6193, 6234, 6233, 7873, 7874, 7915, 7914
5922, 6193, 6194, 6235, 6234, 7874, 7875, 7916, 7915
5923, 6194, 6195, 6236, 6235, 7875, 7876, 7917, 7916
5924, 6195, 6196, 6237, 6236, 7876, 7877, 7918, 7917
5925, 6196, 6197, 6238, 6237, 7877, 7878, 7919, 7918
5926, 6197, 6198, 6239, 6238, 7878, 7879, 7920, 7919
5927, 6198, 6199, 6240, 6239, 7879, 7880, 7921, 7920
5928, 6199, 6200, 6241, 6240, 7880, 7881, 7922, 7921
5929, 6200, 6201, 6242, 6241, 7881, 7882, 7923, 7922
5930, 6201, 6202, 6243, 6242, 7882, 7883, 7924, 7923
5931, 6202, 6203, 6244, 6243, 7883, 7884, 7925, 7924
5932, 6203, 6204, 6245, 6244, 7884, 7885, 7926, 7925
5933, 6204, 6205, 6246, 6245, 7885, 7886, 7927, 7926
5934, 6205, 6206, 6247, 6246, 7886, 7887, 7928, 7927
5935, 6206, 6207, 6248, 6247, 7887, 7888, 7929, 7928
5936, 6207, 6208, 6249, 6248, 7888, 7889, 7930, 7929
5937, 6208, 6209, 6250, 6249, 7889, 7890, 7931, 7930
5938, 6209, 6210, 6251, 6250, 7890, 7891, 7932, 7931
5939, 6210, 6211, 6252, 6251, 7891, 7892, 7933, 7932
5940, 6211, 6212, 6253, 6252, 7892, 7893, 7934, 7933
5941, 6212, 6213, 6254, 6253, 7893, 7894, 7935, 7934
5942, 6213, 6214, 6255, 6254, 7894, 7895, 7936, 7935
5943, 6214, 6215, 6256, 6255, 7895, 7896, 7937, 7936
5944, 6215, 6216, 6257, 6256, 7896, 7897, 7938, 7937
5945, 6216, 6217, 6258, 6257, 7897, 7898, 7939, 7938
5946, 6217, 6218, 6259, 6258, 7898, 7899, 7940, 7939
5947, 6218, 6219, 6260, 6259, 7899, 7900, 7941, 7940
5948, 6219, 6220, 6261, 6260, 7900, 7901, 7942, 7941
5949, 6220, 6221, 6262, 6261, 7901, 7902, 7943, 7942
5950, 6221, 6222, 6263, 6262, 7902, 7903, 7944, 7943
5951, 6222, 6223, 6264, 6263, 7903, 7904, 7945, 7944
5952, 6223, 6224, 6265, 6264, 7904, 7905, 7946, 7945
5953, 6224, 6225, 6266, 6265, 7905, 7906, 7947, 7946
5954, 6225, 6226, 6267, 6266, 7906, 7907, 7948, 7947
5955, 6226, 6227, 6268, 6267, 7907, 7908, 7949, 7948
5956, 6227, 6228, 6269, 6268, 7908, 7909, 7950, 7949
5957, 6228, 6229, 6270, 6269, 7909, 7910, 7951, 7950
5958, 6229, 6230, 6271, 6270, 7910, 7911, 7952, 7951
5959, 6230, 6231, 6272, 6271, 7911, 7912, 7953, 7952
5960, 6231, 6232, 6273, 6272, 7912, 7913, 7954, 7953
5961, 6233, 6234, 6275, 6274, 7914, 7915, 7956, 7955
5962, 6234, 6235, 6276, 6275, 7915, 7916, 7957, 7956
5963, 6235, 6236, 6277, 6276, 7916, 7917, 7958, 7957
5964, 6236, 6237, 6278, 6277, 7917, 7918, 7959, 7958
5965, 6237, 6238, 6279, 6278, 7918, 7919, 7960, 7959
5966, 6238, 6239, 6280, 6279, 7919, 7920, 7961, 7960
5967, 6239, 6240, 6281, 6280, 7920, 7921, 7962, 7961
5968, 6240, 6241, 6282, 6281, 7921, 7922, 7963, 7962
5969, 6241, 6242, 6283, 6282, 7922, 7923, 7964, 7963
5970, 6242, 6243, 6284, 6283, 7923, 7924, 7965, 7964
5971, 6243, 6244, 6285, 6284, 7924, 7925, 7966, 7965
5972, 6244, 6245, 6286, 6285, 7925, 7926, 7967, 7966
5973, 6245, 6246, 6287, 6286, 7926, 7927, 7968, 7967
5974, 6246, 6247, 6288, 6287, 7927, 7928, 7969, 7968
5975, 6247, 6248, 6289, 6288, 7928, 7929, 7970, 7969
5976, 6248, 6249, 6290, 6289, 7929, 7930, 7971, 7970
5977, 6249, 6250, 6291, 6290, 7930, 7931, 7972, 7971
5978, 6250, 6251, 6292, 6291, 7931, 7932, 7973, 7972
5979, 6251, 6252, 6293, 6292, 7932, 7933, 7974, 7973
5980, 6252, 6253, 6294, 6293, 7933, 7934, 7975, 7974
5981, 6253, 6254, 6295, 6294, 7934, 7935, 7976, 7975
5982, 6254, 6255, 6296, 6295, 7935, 7936, 7977, 7976
5983, 6255, 6256, 6297, 6296, 7936, 7937, 7978, 7977
5984, 6256, 6257, 6298, 6297, 7937, 7938, 7979, 7978
5985, 6257, 6258, 6299, 6298, 7938, 7939, 7980, 7979
5986, 6258, 6259, 6300, 6299, 7939, 7940, 7981, 7980
5987, 6259, 6260, 6301, 6300, 7940, 7941, 7982, 7981
5988, 6260, 6261, 6302, 6301, 7941, 7942, 7983, 7982
5989, 6261, 6262, 6303, 6302, 7942, 7943, 7984, 7983
5990, 6262, 6263, 6304, 6303, 7943, 7944, 7985, 7984
5991, 6263, 6264, 6305, 6304, 7944, 7945, 7986, 7985
5992, 6264, 6265, 6306, 6305, 7945, 7946, 7987, 7986
5993, 6265, 6266, 6307, 6306, 7946, 7947, 7988, 7987
5994, 6266, 6267, 6308, 6307, 7947, 7948, 7989, 7988
5995, 6267, 6268, 6309, 6308, 7948, 7949, 7990, 7989
5996, 6268, 6269, 6310, 6309, 7949, 7950, 7991, 7990
5997, 6269, 6270, 6311, 6310, 7950, 7951, 7992, 7991
5998, 6270, 6271, 6312, 6311, 7951, 7952, 7993, 7992
5999, 6271, 6272, 6313, 6312, 7952, 7953, 7994, 7993
6000, 6272, 6273, 6314, 6313, 7953, 7954, 7995, 7994
6001, 6274, 6275, 6316, 6315, 7955, 7956, 7997, 7996
6002, 6275, 6276, 6317, 6316, 7956, 7957, 7998, 7997
6003, 6276, 6277, 6318, 6317, 7957, 7958, 7999, 7998
6004, 6277, 6278, 6319, 6318, 7958, 7959, 8000, 7999
6005, 6278, 6279, 6320, 6319, 7959, 7960, 8001, 8000
6006, 6279, 6280, 6321, 6320, 7960, 7961, 8002, 8001
6007, 6280, 6281, 6322, 6321, 7961, 7962, 8003, 8002
6008, 6281, 6282, 6323, 6322, 7962, 7963, 8004, 8003
6009, 6282, 6283, 6324, 6323, 7963, 7964, 8005, 8004
6010, 6283, 6284, 6325, 6324, 7964, 7965, 8006, 8005
6011, 6284, 6285, 6326, 6325, 7965, 7966, 8007, 8006
6012, 6285, 6286, 6327, 6326, 7966, 7967, 8008, 8007
6013, 6286, 6287, 6328, 6327, 7967, 7968, 8009, 8008
6014, 6287, 6288, 6329, 6328, 7968, 7969, 8010, 8009
6015, 6288, 6289, 6330, 6329, 7969, 7970, 8011, 8010
6016, 6289, 6290, 6331, 6330, 7970, 7971, 8012, 8011
6017, 6290, 6291, 6332, 6331, 7971, 7972, 8013, 8012
6018, 6291, 6292, 6333, 6332, 7972, 7973, 8014, 8013
6019, 6292, 6293, 6334, 6333, 7973, 7974, 8015, 8014
6020, 6293, 6294, 6335, 6334, 7974, 7975, 8016, 8015
6021, 6294, 6295, 6336, 6335, 7975, 7976, 8017, 8016
6022, 6295, 6296, 6337, 6336, 7976, 7977, 8018, 8017
6023, 6296, 6297, 6338, 6337, 7977, 7978, 8019, 8018
6024, 6297, 6298, 6339, 6338, 7978, 7979, 8020, 8019
6025, 6298, 6299, 6340, 6339, 7979, 7980, 8021, 8020
6026, 6299, 6300, 6341, 6340, 7980, 7981, 8022, 8021
6027, 6300, 6301, 6342, 6341, 7981, 7982, 8023, 8022
6028, 6301, 6302, 6343, 6342, 7982, 7983, 8024, 8023
6029, 6302, 6303, 6344, 6343, 7983, 7984, 8025, 8024
6030, 6303, 6304, 6345, 6344, 7984, 7985, 8026, 8025
6031, 6304, 6305, 6346, 6345, 7985, 7986, 8027, 8026
6032, 6305, 6306, 6347, 6346, 7986, 7987, 8028, 8027
6033, 6306, 6307, 6348, 6347, 7987, 7988, 8029, 8028
6034, 6307, 6308, 6349, 6348, 7988, 7989, 8030, 8029
6035, 6308, 6309, 6350, 6349, 7989, 7990, 8031, 8030
6036, 6309, 6310, 6351, 6350, 7990, 7991, 8032, 8031
6037, 6310, 6311, 6352, 6351, 7991, 7992, 8033, 8032
6038, 6311, 6312, 6353, 6352, 7992, 7993, 8034, 8033
6039, 6312, 6313, 6354, 6353, 7993, 7994, 8035, 8034
6040, 6313, 6314, 6355, 6354, 7994, 7995, 8036, 8035
6041, 6315, 6316, 6357, 6356, 7996, 7997, 8038, 8037
6042, 6316, 6317, 6358, 6357, 7997, 7998, 8039, 8038
6043, 6317, 6318, 6359, 6358, 7998, 7999, 8040, 8039
6044, 6318, 6319, 6360, 6359, 7999, 8000, 8041, 8040
6045, 6319, 6320, 6361, 6360, 8000, 8001, 8042, 8041
6046, 6320, 6321, 6362, 6361, 8001, 8002, 8043, 8042
6047, 6321, 6322, 6363, 6362, 8002, 8003, 8044, 8043
6048, 6322, 6323, 6364, 6363, 8003, 8004, 8045, 8044
6049, 6323, 6324, 6365, 6364, 8004, 8005, 8046, 8045
6050, 6324, 6325, 6366, 6365, 8005, 8006, 8047, 8046
6051, 6325, 6326, 6367, 6366, 8006, 8007, 8048, 8047
6052, 6326, 6327, 6368, 6367, 8007, 8008, 8049, 8048
6053, 6327, 6328, 6369, 6368, 8008, 8009, 8050, 8049
6054, 6328, 6329, 6370, 6369, 8009, 8010, 8051, 8050
6055, 6329, 6330, 6371, 6370, 8010, 8011, 8052, 8051
6056, 6330, 6331, 6372, 6371, 8011, 8012, 8053, 8052
6057, 6331, 6332, 6373, 6372, 8012, 8013, 8054, 8053
6058, 6332, 6333, 6374, 6373, 8013, 8014, 8055, 8054
6059, 6333, 6334, 6375, 6374, 8014, 8015, 8056, 8055
6060, 6334, 6335, 6376, 6375, 8015, 8016, 8057, 8056
6061, 6335, 6336, 6377, 6376, 8016, 8017, 8058, 8057
6062, 6336, 6337, 6378, 6377, 8017, 8018, 8059, 8058
6063, 6337, 6338, 6379, 6378, 8018, 8019, 8060, 8059
6064, 6338, 6339, 6380, 6379, 8019, 8020, 8061, 8060
6065, 6339, 6340, 6381, 6380, 8020, 8021, 8062, 8061
6066, 6340, 6341, 6382, 6381, 8021, 8022, 8063, 8062
6067, 6341, 6342, 6383, 6382, 8022, 8023, 8064, 8063
6068, 6342, 6343, 6384, 6383, 8023, 8024, 8065, 8064
6069, 6343, 6344, 6385, 6384, 8024, 8025, 8066, 8065
6070, 6344, 6345, 6386, 6385, 8025, 8026, 8067, 8066
6071, 6345, 6346, 6387, 6386, 8026, 8027, 8068, 8067
6072, 6346, 6347, 6388, 6387, 8027, 8028, 8069, 8068
6073, 6347, 6348, 6389, 6388, 8028, 8029, 8070, 8069
6074, 6348, 6349, 6390, 6389, 8029, 8030, 8071, 8070
6075, 6349, 6350, 6391, 6390, 8030, 8031, 8072, 8071
6076, 6350, 6351, 6392, 6391, 8031, 8032, 8073, 8072
6077, 6351, 6352, 6393, 6392, 8032, 8033, 8074, 8073
6078, 6352, 6353, 6394, 6393, 8033, 8034, 8075, 8074
6079, 6353, 6354, 6395, 6394, 8034, 8035, 8076, 8075
6080, 6354, 6355, 6396, 6395, 8035, 8036, 8077, 8076
6081, 6356, 6357, 6398, 6397, 8037, 8038, 8079, 8078
6082, 6357, 6358, 6399, 6398, 8038, 8039, 8080, 8079
6083, 6358, 6359, 6400, 6399, 8039, 8040, 8081, 8080
6084, 6359, 6360, 6401, 6400, 8040, 8041, 8082, 8081
6085, 6360, 6361, 6402, 6401, 8041, 8042, 8083, 8082
6086, 6361, 6362, 6403, 6402, 8042, 8043, 8084, 8083
6087, 6362, 6363, 6404, 6403, 8043, 8044, 8085, 8084
6088, 6363, 6364, 6405, 6404, 8044, 8045, 8086, 8085
6089, 6364, 6365, 6406, 6405, 8045, 8046, 8087, 8086
6090, 6365, 6366, 6407, 6406, 8046, 8047, 8088, 8087
6091, 6366, 6367, 6408, 6407, 8047, 8048, 8089, 8088
6092, 6367, 6368, 6409, 6408, 8048, 8049, 8090, 8089
6093, 6368, 6369, 6410, 6409, 8049, 8050, 8091, 8090
6094, 6369, 6370, 6411, 6410, 8050, 8051, 8092, 8091
6095, 6370, 6371, 6412, 6411, 8051, 8052, 8093, 8092
6096, 6371, 6372, 6413, 6412, 8052, 8053, 8094, 8093
6097, 6372, 6373, 6414, 6413, 8053, 8054, 8095, 8094
6098, 6373, 6374, 6415, 6414, 8054, 8055, 8096, 8095
6099, 6374, 6375, 6416, 6415, 8055, 8056, 8097, 8096
6100, 6375, 6376, 6417, 6416, 8056, 8057, 8098, 8097
6101, 6376, 6377, 6418, 6417, 8057, 8058, 8099, 8098
6102, 6377, 6378, 6419, 6418, 8058, 8059, 8100, 8099
6103, 6378, 6379, 6420, 6419, 8059, 8060, 8101, 8100
6104, 6379, 6380, 6421, 6420, 8060, 8061, 8102, 8101
6105, 6380, 6381, 6422, 6421, 8061, 8062, 8103, 8102
6106, 6381, 6382, 6423, 6422, 8062, 8063, 8104, 8103
6107, 6382, 6383, 6424, 6423, 8063, 8064, 8105, 8104
6108, 6383, 6384, 6425, 6424, 8064, 8065, 8106, 8105
6109, 6384, 6385, 6426, 6425, 8065, 8066, 8107, 8106
6110, 6385, 6386, 6427, 6426, 8066, 8067, 8108, 8107
6111, 6386, 6387, 6428, 6427, 8067, 8068, 8109, 8108
6112, 6387, 6388, 6429, 6428, 8068, 8069, 8110, 8109
6113, 6388, 6389, 6430, 6429, 8069, 8070, 8111, 8110
6114, 6389, 6390, 6431, 6430, 8070, 8071, 8112, 8111
6115, 6390, 6391, 6432, 6431, 8071, 8072, 8113, 8112
6116, 6391, 6392, 6433, 6432, 8072, 8073, 8114, 8113
6117, 6392, 6393, 6434, 6433, 8073, 8074, 8115, 8114
6118, 6393, 6394, 6435, 6434, 8074, 8075, 8116, 8115
6119, 6394, 6395, 6436, 6435, 8075, 8076, 8117, 8116
6120, 6395, 6396, 6437, 6436, 8076, 8077, 8118, 8117
6121, 6397, 6398, 6439, 6438, 8078, 8079, 8120, 8119
6122, 6398, 6399, 6440, 6439, 8079, 8080, 8121, 8120
6123, 6399, 6400, 6441, 6440, 8080, 8081, 8122, 8121
6124, 6400, 6401, 6442, 6441, 8081, 8082, 8123, 8122
6125, 6401, 6402, 6443, 6442, 8082, 8083, 8124, 8123
6126, 6402, 6403, 6444, 6443, 8083, 8084, 8125, 8124
6127, 6403, 6404, 6445, 6444, 8084, 8085, 8126, 8125
6128, 6404, 6405, 6446, 6445, 8085, 8086, 8127, 8126
6129, 6405, 6406, 6447, 6446, 8086, 8087, 8128, 8127
6130, 6406, 6407, 6448, 6447, 8087, 8088, 8129, 8128
6131, 6407, 6408, 6449, 6448, 8088, 8089, 8130, 8129
6132, 6408, 6409, 6450, 6449, 8089, 8090, 8131, 8130
6133, 6409, 6410, 6451, 6450, 8090, 8091, 8132, 8131
6134, 6410, 6411, 6452, 6451, 8091, 8092, 8133, 8132
6135, 6411, 6412, 6453, 6452, 8092, 8093, 8134, 8133
6136, 6412, 6413, 6454, 6453, 8093, 8094, 8135, 8134
6137, 6413, 6414, 6455, 6454, 8094, 8095, 8136, 8135
6138, 6414, 6415, 6456, 6455, 8095, 8096, 8137, 8136
6139, 6415, 6416, 6457, 6456, 8096, 8097, 8138, 8137
6140, 6416, 6417, 6458, 6457, 8097, 8098, 8139, 8138
6141, 6417, 6418, 6459, 6458, 8098, 8099, 8140, 8139
6142, 6418, 6419, 6460, 6459, 8099, 8100, 8141, 8140
6143, 6419, 6420, 6461, 6460, 8100, 8101, 8142, 8141
6144, 6420, 6421, 6462, 6461, 8101, 8102, 8143, 8142
6145, 6421, 6422, 6463, 6462, 8102, 8103, 8144, 8143
6146, 6422, 6423, 6464, 6463, 8103, 8104, 8145, 8144
6147, 6423, 6424, 6465, 6464, 8104, 8105, 8146, 8145
6148, 6424, 6425, 6466, 6465, 8105, 8106, 8147, 8146
6149, 6425, 6426, 6467, 6466, 8106, 8107, 8148, 8147
6150, 6426, 6427, 6468, 6467, 8107, 8108, 8149, 8148
6151, 6427, 6428, 6469, 6468, 8108, 8109, 8150, 8149
6152, 6428, 6429, 6470, 6469, 8109, 8110, 8151, 8150
6153, 6429, 6430, 6471, 6470, 8110, 8111, 8152, 8151
6154, 6430, 6431, 6472, 6471, 8111, 8112, 8153, 8152
6155, 6431, 6432, 6473, 6472, 8112, 8113, 8154, 8153
6156, 6432, 6433, 6474, 6473, 8113, 8114, 8155, 8154
6157, 6433, 6434, 6475, 6474, 8114, 8115, 8156, 8155
6158, 6434, 6435, 6476, 6475, 8115, 8116, 8157, 8156
6159, 6435, 6436, 6477, 6476, 8116, 8117, 8158, 8157
6160, 6436, 6437, 6478, 6477, 8117, 8118, 8159, 8158
6161, 6438, 6439, 6480, 6479, 8119, 8120, 8161, 8160
6162, 6439, 6440, 6481, 6480, 8120, 8121, 8162, 8161
6163, 6440, 6441, 6482, 6481, 8121, 8122, 8163, 8162
6164, 6441, 6442, 6483, 6482, 8122, 8123, 8164, 8163
6165, 6442, 6443, 6484, 6483, 8123, 8124, 8165, 8164
6166, 6443, 6444, 6485, 6484, 8124, 8125, 8166, 8165
6167, 6444, 6445, 6486, 6485, 8125, 8126, 8167, 8166
6168, 6445, 6446, 6487, 6486, 8126, 8127, 8168, 8167
6169, 6446, 6447, 6488, 6487, 8127, 8128, 8169, 8168
6170, 6447, 6448, 6489, 6488, 8128, 8129, 8170, 8169
6171, 6448, 6449, 6490, 6489, 8129, 8130, 8171, 8170
6172, 6449, 6450, 6491, 6490, 8130, 8131, 8172, 8171
6173, 6450, 6451, 6492, 6491, 8131, 8132, 8173, 8172
6174, 6451, 6452, 6493, 6492, 8132, 8133, 8174, 8173
6175, 6452, 6453, 6494, 6493, 8133, 8134, 8175, 8174
6176, 6453, 6454, 6495, 6494, 8134, 8135, 8176, 8175
6177, 6454, 6455, 6496, 6495, 8135, 8136, 8177, 8176
6178, 6455, 6456, 6497, 6496, 8136, 8137, 8178, 8177
6179, 6456, 6457, 6498, 6497, 8137, 8138, 8179, 8178
6180, 6457, 6458, 6499, 6498, 8138, 8139, 8180, 8179
6181, 6458, 6459, 6500, 6499, 8139, 8140, 8181, 8180
6182, 6459, 6460, 6501, 6500, 8140, 8141, 8182, 8181
6183, 6460, 6461, 6502, 6501, 8141, 8142, 8183, 8182
6184, 6461, 6462, 6503, 6502, 8142, 8143, 8184, 8183
6185, 6462, 6463, 6504, 6503, 8143, 8144, 8185, 8184
6186, 6463, 6464, 6505, 6504, 8144, 8145, 8186, 8185
6187, 6464, 6465, 6506, 6505, 8145, 8146, 8187, 8186
6188, 6465, 6466, 6507, 6506, 8146, 8147, 8188, 8187
6189, 6466, 6467, 6508, 6507, 8147, 8148, 8189, 8188
6190, 6467, 6468, 6509, 6508, 8148, 8149, 8190, 8189
6191, 6468, 6469, 6510, 6509, 8149, 8150, 8191, 8190
6192, 6469, 6470, 6511, 6510, 8150, 8151, 8192, 8191
6193, 6470, 6471, 6512, 6511, 8151, 8152, 8193, 8192
6194, 6471, 6472, 6513, 6512, 8152, 8153, 8194, 8193
6195, 6472, 6473, 6514, 6513, 8153, 8154, 8195, 8194
6196, 6473, 6474, 6515, 6514, 8154, 8155, 8196, 8195
6197, 6474, 6475, 6516, 6515, 8155, 8156, 8197, 8196
6198, 6475, 6476, 6517, 6516, 8156, 8157, 8198, 8197
6199, 6476, 6477, 6518, 6517, 8157, 8158, 8199, 8198
6200, 6477, 6478, 6519, 6518, 8158, 8159, 8200, 8199
6201, 6479, 6480, 6521, 6520, 8160, 8161, 8202, 8201
6202, 6480, 6481, 6522, 6521, 8161, 8162, 8203, 8202
6203, 6481, 6482, 6523, 6522, 8162, 8163, 8204, 8203
6204, 6482, 6483, 6524, 6523, 8163, 8164, 8205, 8204
6205, 6483, 6484, 6525, 6524, 8164, 8165, 8206, 8205
6206, 6484, 6485, 6526, 6525, 8165, 8166, 8207, 8206
6207, 6485, 6486, 6527, 6526, 8166, 8167, 8208, 8207
6208, 6486, 6487, 6528, 6527, 8167, 8168, 8209, 8208
6209, 6487, 6488, 6529, 6528, 8168, 8169, 8210, 8209
6210, 6488, 6489, 6530, 6529, 8169, 8170, 8211, 8210
6211, 6489, 6490, 6531, 6530, 8170, 8171, 8212, 8211
6212, 6490, 6491, 6532, 6531, 8171, 8172, 8213, 8212
6213, 6491, 6492, 6533, 6532, 8172, 8173, 8214, 8213
6214, 6492, 6493, 6534, 6533, 8173, 8174, 8215, 8214
6215, 6493, 6494, 6535, 6534, 8174, 8175, 8216, 8215
6216, 6494, 6495, 6536, 6535, 8175, 8176, 8217, 8216
6217, 6495, 6496, 6537, 6536, 8176, 8177, 8218, 8217
6218, 6496, 6497, 6538, 6537, 8177, 8178, 8219, 8218
6219, 6497, 6498, 6539, 6538, 8178, 8179, 8220, 8219
6220, 6498, 6499, 6540, 6539, 8179, 8180, 8221, 8220
6221, 6499, 6500, 6541, 6540, 8180, 8181, 8222, 8221
6222, 6500, 6501, 6542, 6541, 8181, 8182, 8223, 8222
6223, 6501, 6502, 6543, 6542, 8182, 8183, 8224, 8223
6224, 6502, 6503, 6544, 6543, 8183, 8184, 8225, 8224
6225, 6503, 6504, 6545, 6544, 8184, 8185, 8226, 8225
6226, 6504, 6505, 6546, 6545, 8185, 8186, 8227, 8226
6227, 6505, 6506, 6547, 6546, 8186, 8187, 8228, 8227
6228, 6506, 6507, 6548, 6547, 8187, 8188, 8229, 8228
6229, 6507, 6508, 6549, 6548, 8188, 8189, 8230, 8229
6230, 6508, 6509, 6550, 6549, 8189, 8190, 8231, 8230
6231, 6509, 6510, 6551, 6550, 8190, 8191, 8232, 8231
6232, 6510, 6511, 6552, 6551, 8191, 8192, 8233, 8232
6233, 6511, 6512, 6553, 6552, 8192, 8193, 8234, 8233
6234, 6512, 6513, 6554, 6553, 8193, 8194, 8235, 8234
6235, 6513, 6514, 6555, 6554, 8194, 8195, 8236, 8235
6236, 6514, 6515, 6556, 6555, 8195, 8196, 8237, 8236
6237, 6515, 6516, 6557, 6556, 8196, 8197, 8238, 8237
6238, 6516, 6517, 6558, 6557, 8197, 8198, 8239, 8238
6239, 6517, 6518, 6559, 6558, 8198, 8199, 8240, 8239
6240, 6518, 6519, 6560, 6559, 8199, 8200, 8241, 8240
6241, 6520, 6521, 6562, 6561, 8201, 8202, 8243, 8242
6242, 6521, 6522, 6563, 6562, 8202, 8203, 8244, 8243
6243, 6522, 6523, 6564, 6563, 8203, 8204, 8245, 8244
6244, 6523, 6524, 6565, 6564, 8204, 8205, 8246, 8245
6245, 6524, 6525, 6566, 6565, 8205, 8206, 8247, 8246
6246, 6525, 6526, 6567, 6566, 8206, 8207, 8248, 8247
6247, 6526, 6527, 6568, 6567, 8207, 8208, 8249, 8248
6248, 6527, 6528, 6569, 6568, 8208, 8209, 8250, 8249
6249, 6528, 6529, 6570, 6569, 8209, 8210, 8251, 8250
6250, 6529, 6530, 6571, 6570, 8210, 8211, 8252, 8251
6251, 6530, 6531, 6572, 6571, 8211, 8212, 8253, 8252
6252, 6531, 6532, 6573, 6572, 8212, 8213, 8254, 8253
6253, 6532, 6533, 6574, 6573, 8213, 8214, 8255, 8254
6254, 6533, 6534, 6575, 6574, 8214, 8215, 8256, 8255
6255, 6534, 6535, 6576, 6575, 8215, 8216, 8257, 8256
6256, 6535, 6536, 6577, 6576, 8216, 8217, 8258, 8257
6257, 6536, 6537, 6578, 6577, 8217, 8218, 8259, 8258
6258, 6537, 6538, 6579, 6578, 8218, 8219, 8260, 8259
6259, 6538, 6539, 6580, 6579, 8219, 8220, 8261, 8260
6260, 6539, 6540, 6581, 6580, 8220, 8221, 8262, 8261
6261, 6540, 6541, 6582, 6581, 8221, 8222, 8263, 8262
6262, 6541, 6542, 6583, 6582, 8222, 8223, 8264, 8263
6263, 6542, 6543, 6584, 6583, 8223, 8224, 8265, 8264
6264, 6543, 6544, 6585, 6584, 8224, 8225, 8266, 8265
6265, 6544, 6545, 6586, 6585, 8225, 8226, 8267, 8266
6266, 6545, 6546, 6587, 6586, 8226, 8227, 8268, 8267
6267, 6546, 6547, 6588, 6587, 8227, 8228, 8269, 8268
6268, 6547, 6548, 6589, 6588, 8228, 8229, 8270, 8269
6269, 6548, 6549, 6590, 6589, 8229, 8230, 8271, 8270
6270, 6549, 6550, 6591, 6590, 8230, 8231, 8272, 8271
6271, 6550, 6551, 6592, 6591, 8231, 8232, 8273, 8272
6272, 6551, 6552, 6593, 6592, 8232, 8233, 8274, 8273
6273, 6552, 6553, 6594, 6593, 8233, 8234, 8275, 8274
6274, 6553, 6554, 6595, 6594, 8234, 8235, 8276, 8275
6275, 6554, 6555, 6596, 6595, 8235, 8236, 8277, 8276
6276, 6555, 6556, 6597, 6596, 8236, 8237, 8278, 8277
6277, 6556, 6557, 6598, 6597, 8237, 8238, 8279, 8278
6278, 6557, 6558, 6599, 6598, 8238, 8239, 8280, 8279
6279, 6558, 6559, 6600, 6599, 8239, 8240, 8281, 8280
6280, 6559, 6560, 6601, 6600, 8240, 8241, 8282, 8281
6281, 6561, 6562, 6603, 6602, 8242, 8243, 8284, 8283
6282, 6562, 6563, 6604, 6603, 8243, 8244, 8285, 8284
6283, 6563, 6564, 6605, 6604, 8244, 8245, 8286, 8285
6284, 6564, 6565, 6606, 6605, 8245, 8246, 8287, 8286
6285, 6565, 6566, 6607, 6606, 8246, 8247, 8288, 8287
6286, 6566, 6567, 6608, 6607, 8247, 8248, 8289, 8288
6287, 6567, 6568, 6609, 6608, 8248, 8249, 8290, 8289
6288, 6568, 6569, 6610, 6609, 8249, 8250, 8291, 8290
6289, 6569, 6570, 6611, 6610, 8250, 8251, 8292, 8291
6290, 6570, 6571, 6612, 6611, 8251, 8252, 8293, 8292
6291, 6571, 6572, 6613, 6612, 8252, 8253, 8294, 8293
6292, 6572, 6573, 6614, 6613, 8253, 8254, 8295, 8294
6293, 6573, 6574, 6615, 6614, 8254, 8255, 8296, 8295
6294, 6574, 6575, 6616, 6615, 8255, 8256, 8297, 8296
6295, 6575, 6576, 6617, 6616, 8256, 8257, 8298, 8297
6296, 6576, 6577, 6618, 6617, 8257, 8258, 8299, 8298
6297, 6577, 6578, 6619, 6618, 8258, 8259, 8300, 8299
6298, 6578, 6579, 6620, 6619, 8259, 8260, 8301, 8300
6299, 6579, 6580, 6621, 6620, 8260, 8261, 8302, 8301
6300, 6580, 6581, 6622, 6621, 8261, 8262, 8303, 8302
6301, 6581, 6582, 6623, 6622, 8262, 8263, 8304, 8303
6302, 6582, 6583, 6624, 6623, 8263, 8264, 8305, 8304
6303, 6583, 6584, 6625, 6624, 8264, 8265, 8306, 8305
6304, 6584, 6585, 6626, 6625, 8265, 8266, 8307, 8306
6305, 6585, 6586, 6627, 6626, 8266, 8267, 8308, 8307
6306, 6586, 6587, 6628, 6627, 8267, 8268, 8309, 8308
6307, 6587, 6588, 6629, 6628, 8268, 8269, 8310, 8309
6308, 6588, 6589, 6630, 6629, 8269, 8270, 8311, 8310
6309, 6589, 6590, 6631, 6630, 8270, 8271, 8312, 8311
6310, 6590, 6591, 6632, 6631, 8271, 8272, 8313, 8312
6311, 6591, 6592, 6633, 6632, 8272, 8273, 8314, 8313
6312, 6592, 6593, 6634, 6633, 8273, 8274, 8315, 8314
6313, 6593, 6594, 6635, 6634, 8274, 8275, 8316, 8315
6314, 6594, 6595, 6636, 6635, 8275, 8276, 8317, 8316
6315, 6595, 6596, 6637, 6636, 8276, 8277, 8318, 8317
6316, 6596, 6597, 6638, 6637, 8277, 8278, 8319, 8318
6317, 6597, 6598, 6639, 6638, 8278, 8279, 8320, 8319
6318, 6598, 6599, 6640, 6639, 8279, 8280, 8321, 8320
6319, 6599, 6600, 6641, 6640, 8280, 8281, 8322, 8321
6320, 6600, 6601, 6642, 6641, 8281, 8282, 8323, 8322
6321, 6602, 6603, 6644, 6643, 8283, 8284, 8325, 8324
6322, 6603, 6604, 6645, 6644, 8284, 8285, 8326, 8325
6323, 6604, 6605, 6646, 6645, 8285, 8286, 8327, 8326
6324, 6605, 6606, 6647, 6646, 8286, 8287, 8328, 8327
6325, 6606, 6607, 6648, 6647, 8287, 8288, 8329, 8328
6326, 6607, 6608, 6649, 6648, 8288, 8289, 8330, 8329
6327, 6608, 6609, 6650, 6649, 8289, 8290, 8331, 8330
6328, 6609, 6610, 6651, 6650, 8290, 8291, 8332, 8331
6329, 6610, 6611, 6652, 6651, 8291, 8292, 8333, 8332
6330, 6611, 6612, 6653, 6652, 8292, 8293, 8334, 8333
6331, 6612, 6613, 6654, 6653, 8293, 8294, 8335, 8334
6332, 6613, 6614, 6655, 6654, 8294, 8295, 8336, 8335
6333, 6614, 6615, 6656, 6655, 8295, 8296, 8337, 8336
6334, 6615, 6616, 6657, 6656, 8296, 8297, 8338, 8337
6335, 6616, 6617, 6658, 6657, 8297, 8298, 8339, 8338
6336, 6617, 6618, 6659, 6658, 8298, 8299, 8340, 8339
6337, 6618, 6619, 6660, 6659, 8299, 8300, 8341, 8340
6338, 6619, 6620, 6661, 6660, 8300, 8301, 8342, 8341
6339, 6620, 6621, 6662, 6661, 8301, 8302, 8343, 8342
6340, 6621, 6622, 6663, 6662, 8302, 8303, 8344, 8343
6341, 6622, 6623, 6664, 6663, 8303, 8304, 8345, 8344
6342, 6623, 6624, 6665, 6664, 8304, 8305, 8346, 8345
6343, 6624, 6625, 6666, 6665, 8305, 8306, 8347, 8346
6344, 6625, 6626, 6667, 6666, 8306, 8307, 8348, 8347
6345, 6626, 6627, 6668, 6667, 8307, 8308, 8349, 8348
6346, 6627, 6628, 6669, 6668, 8308, 8309, 8350, 8349
6347, 6628, 6629, 6670, 6669, 8309, 8310, 8351, 8350
6348, 6629, 6630, 6671, 6670, 8310, 8311, 8352, 8351
6349, 6630, 6631, 6672, 6671, 8311, 8312, 8353, 8352
6350, 6631, 6632, 6673, 6672, 8312, 8313, 8354, 8353
6351, 6632, 6633, 6674, 6673, 8313, 8314, 8355, 8354
6352, 6633, 6634, 6675, 6674, 8314, 8315, 8356, 8355
6353, 6634, 6635, 6676, 6675, 8315, 8316, 8357, 8356
6354, 6635, 6636, 6677, 6676, 8316, 8317, 8358, 8357
6355, 6636, 6637, 6678, 6677, 8317, 8318, 8359, 8358
6356, 6637, 6638, 6679, 6678, 8318, 8319, 8360, 8359
6357, 6638, 6639, 6680, 6679, 8319, 8320, 8361, 8360
6358, 6639, 6640, 6681, 6680, 8320, 8321, 8362, 8361
6359, 6640, 6641, 6682, 6681, 8321, 8322, 8363, 8362
6360, 6641, 6642, 6683, 6682, 8322, 8323, 8364, 8363
6361, 6643, 6644, 6685, 6684, 8324, 8325, 8366, 8365
6362, 6644, 6645, 6686, 6685, 8325, 8326, 8367, 8366
6363, 6645, 6646, 6687, 6686, 8326, 8327, 8368, 8367
6364, 6646, 6647, 6688, 6687, 8327, 8328, 8369, 8368
6365, 6647, 6648, 6689, 6688, 8328, 8329, 8370, 8369
6366, 6648, 6649, 6690, 6689, 8329, 8330, 8371, 8370
6367, 6649, 6650, 6691, 6690, 8330, 8331, 8372, 8371
6368, 6650, 6651, 6692, 6691, 8331, 8332, 8373, 8372
6369, 6651, 6652, 6693, 6692, 8332, 8333, 8374, 8373
6370, 6652, 6653, 6694, 6693, 8333, 8334, 8375, 8374
6371, 6653, 6654, 6695, 6694, 8334, 8335, 8376, 8375
6372, 6654, 6655, 6696, 6695, 8335, 8336, 8377, 8376
6373, 6655, 6656, 6697, 6696, 8336, 8337, 8378, 8377
6374, 6656, 6657, 6698, 6697, 8337, 8338, 8379, 8378
6375, 6657, 6658, 6699, 6698, 8338, 8339, 8380, 8379
6376, 6658, 6659, 6700, 6699, 8339, 8340, 8381, 8380
6377, 6659, 6660, 6701, 6700, 8340, 8341, 8382, 8381
6378, 6660, 6661, 6702, 6701, 8341, 8342, 8383, 8382
6379, 6661, 6662, 6703, 6702, 8342, 8343, 8384, 8383
6380, 6662, 6663, 6704, 6703, 8343, 8344, 8385, 8384
6381, 6663, 6664, 6705, 6704, 8344, 8345, 8386, 8385
6382, 6664, 6665, 6706, 6705, 8345, 8346, 8387, 8386
6383, 6665, 6666, 6707, 6706, 8346, 8347, 8388, 8387
6384, 6666, 6667, 6708, 6707, 8347, 8348, 8389, 8388
6385, 6667, 6668, 6709, 6708, 8348, 8349, 8390, 8389
6386, 6668, 6669, 6710, 6709, 8349, 8350, 8391, 8390
6387, 6669, 6670, 6711, 6710, 8350, 8351, 8392, 8391
6388, 6670, 6671, 6712, 6711, 8351, 8352, 8393, 8392
6389, 6671, 6672, 6713, 6712, 8352, 8353, 8394, 8393
6390, 6672, 6673, 6714, 6713, 8353, 8354, 8395, 8394
6391, 6673, 6674, 6715, 6714, 8354, 8355, 8396, 8395
6392, 6674, 6675, 6716, 6715, 8355, 8356, 8397, 8396
6393, 6675, 6676, 6717, 6716, 8356, 8357, 8398, 8397
6394, 6676, 6677, 6718, 6717, 8357, 8358, 8399, 8398
6395, 6677, 6678, 6719, 6718, 8358, 8359, 8400, 8399
6396, 6678, 6679, 6720, 6719, 8359, 8360, 8401, 8400
6397, 6679, 6680, 6721, 6720, 8360, 8361, 8402, 8401
6398, 6680, 6681, 6722, 6721, 8361, 8362, 8403, 8402
6399, 6681, 6682, 6723, 6722, 8362, 8363, 8404, 8403
6400, 6682, 6683, 6724, 6723, 8363, 8364, 8405, 8404
*Elset, elset=ALL, generate
1, 6400, 1
**
*Solid Section, elset=ALL, material=CFRP
,
*End Part
**
*Material, name=CFRP
*Density
1570.000,
*Elastic, type=ENGINEERING CONSTANTS
1.281000e+11, 8.200000e+09, 8.200000e+09, 2.700000e-01, 2.700000e-01, 2.000000e-01, 4.700000e+09, 4.700000e+09,
3.440000e+09,
**
*Assembly, name=Assembly
*Instance, name=PLATE-1, part=Part-1
*End Instance
*Nset, nset=RECV, instance=PLATE-1
7559, 7571,
*End Assembly
**
** Five-cycle Hann burst at 100 kHz, sampled every 0.5 us, peak 1.
*Amplitude, name=HANN, time=TOTAL TIME
0.0000000e+00, 0.0000000e+00, 5.0000000e-07, 3.1238192e-04, 1.0000000e-06, 2.3743979e-03, 1.5000000e-06, 7.3410856e-03
2.0000000e-06, 1.5306838e-02, 2.5000000e-06, 2.5073303e-02, 3.0000000e-06, 3.4214134e-02, 3.5000000e-06, 3.9444625e-02
4.0000000e-06, 3.7246168e-02, 4.5000000e-06, 2.4643918e-02, 5.0000000e-06, 1.1981805e-17, 5.5000000e-06, -3.6329269e-02
6.0000000e-06, -8.1612169e-02, 6.5000000e-06, -1.3074011e-01, 7.0000000e-06, -1.7665342e-01, 7.5000000e-06, -2.1117388e-01
8.0000000e-06, -2.2615337e-01, 8.5000000e-06, -2.1478826e-01, 9.0000000e-06, -1.7290765e-01, 9.5000000e-06, -1.0003006e-01
1.0000000e-05, -8.6701155e-17, 1.0500000e-05, 1.1893735e-01, 1.1000000e-05, 2.4469335e-01, 1.1500000e-05, 3.6250745e-01
1.2000000e-05, 4.5662498e-01, 1.2500000e-05, 5.1229093e-01, 1.3000000e-05, 5.1781028e-01, 1.3500000e-05, 4.6639669e-01
1.4000000e-05, 3.5754077e-01, 1.4500000e-05, 1.9767586e-01, 1.5000000e-05, 2.4637354e-16, 1.5500000e-05, -2.1658315e-01
1.6000000e-05, -4.2932646e-01, 1.6500000e-05, -6.1411588e-01, 1.7000000e-05, -7.4828189e-01, 1.7500000e-05, -8.1340799e-01
1.8000000e-05, -7.9778184e-01, 1.8500000e-05, -6.9816404e-01, 1.9000000e-05, -5.2062194e-01, 1.9500000e-05, -2.8028394e-01
2.0000000e-05, -4.5397314e-16, 2.0500000e-05, 2.9196929e-01, 2.1000000e-05, 5.6498794e-01, 2.1500000e-05, 7.8945952e-01
2.2000000e-05, 9.4022113e-01, 2.2500000e-05, 9.9950856e-01, 2.3000000e-05, 9.5912842e-01, 2.3500000e-05, 8.2156306e-01
2.4000000e-05, 5.9985971e-01, 2.4500000e-05, 3.1630083e-01, 2.5000000e-05, 6.2737545e-16, 2.5500000e-05, -3.1630083e-01
2.6000000e-05, -5.9985971e-01, 2.6500000e-05, -8.2156306e-01, 2.7000000e-05, -9.5912842e-01, 2.7500000e-05, -9.9950856e-01
2.8000000e-05, -9.4022113e-01, 2.8500000e-05, -7.8945952e-01, 2.9000000e-05, -5.6498794e-01, 2.9500000e-05, -2.9196929e-01
3.0000000e-05, -6.8095971e-16, 3.0500000e-05, 2.8028394e-01, 3.1000000e-05, 5.2062194e-01, 3.1500000e-05, 6.9816404e-01
3.2000000e-05, 7.9778184e-01, 3.2500000e-05, 8.1340799e-01, 3.3000000e-05, 7.4828189e-01, 3.3500000e-05, 6.1411588e-01
3.4000000e-05, 4.2932646e-01, 3.4500000e-05, 2.1658315e-01, 3.5000000e-05, 5.7487159e-16, 3.5500000e-05, -1.9767586e-01
3.6000000e-05, -3.5754077e-01, 3.6500000e-05, -4.6639669e-01, 3.7000000e-05, -5.1781028e-01, 3.7500000e-05, -5.1229093e-01
3.8000000e-05, -4.5662498e-01, 3.8500000e-05, -3.6250745e-01, 3.9000000e-05, -2.4469335e-01, 3.9500000e-05, -1.1893735e-01
4.0000000e-05, -3.4680462e-16, 4.0500000e-05, 1.0003006e-01, 4.1000000e-05, 1.7290765e-01, 4.1500000e-05, 2.1478826e-01
4.2000000e-05, 2.2615337e-01, 4.2500000e-05, 2.1117388e-01, 4.3000000e-05, 1.7665342e-01, 4.3500000e-05, 1.3074011e-01
4.4000000e-05, 8.1612169e-02, 4.4500000e-05, 3.6329269e-02, 4.5000000e-05, 1.0783624e-16, 4.5500000e-05, -2.4643918e-02
4.6000000e-05, -3.7246168e-02, 4.6500000e-05, -3.9444625e-02, 4.7000000e-05, -3.4214134e-02, 4.7500000e-05, -2.5073303e-02
4.8000000e-05, -1.5306838e-02, 4.8500000e-05, -7.3410856e-03, 4.9000000e-05, -2.3743979e-03, 4.9500000e-05, -3.1238192e-04
5.0000000e-05, -1.8818249e-47
**
*Step, name=WAVE, nlgeom=NO
*Dynamic, Explicit
, 2.2000000e-04
*Bulk Viscosity
0.06, 1.2
**
** Loads are applied per node; the amplitude times the terminal value
** gives 1 N per metre of width for the line source, matching the
** in-house model. No boundary conditions: a free plate is admissible
** in explicit dynamics and it is what the reference model solves.
*Cload, amplitude=HANN
6733, 3, 1.2500000e-02
6774, 3, 1.2500000e-02
6815, 3, 1.2500000e-02
6856, 3, 1.2500000e-02
6897, 3, 1.2500000e-02
6938, 3, 1.2500000e-02
6979, 3, 1.2500000e-02
7020, 3, 1.2500000e-02
7061, 3, 1.2500000e-02
7102, 3, 1.2500000e-02
7143, 3, 1.2500000e-02
7184, 3, 1.2500000e-02
7225, 3, 1.2500000e-02
7266, 3, 1.2500000e-02
7307, 3, 1.2500000e-02
7348, 3, 1.2500000e-02
7389, 3, 1.2500000e-02
7430, 3, 1.2500000e-02
7471, 3, 1.2500000e-02
7512, 3, 1.2500000e-02
7553, 3, 1.2500000e-02
7594, 3, 1.2500000e-02
7635, 3, 1.2500000e-02
7676, 3, 1.2500000e-02
7717, 3, 1.2500000e-02
7758, 3, 1.2500000e-02
7799, 3, 1.2500000e-02
7840, 3, 1.2500000e-02
7881, 3, 1.2500000e-02
7922, 3, 1.2500000e-02
7963, 3, 1.2500000e-02
8004, 3, 1.2500000e-02
8045, 3, 1.2500000e-02
8086, 3, 1.2500000e-02
8127, 3, 1.2500000e-02
8168, 3, 1.2500000e-02
8209, 3, 1.2500000e-02
8250, 3, 1.2500000e-02
8291, 3, 1.2500000e-02
8332, 3, 1.2500000e-02
8373, 3, 1.2500000e-02
9, 3, 1.2500000e-02
50, 3, 1.2500000e-02
91, 3, 1.2500000e-02
132, 3, 1.2500000e-02
173, 3, 1.2500000e-02
214, 3, 1.2500000e-02
255, 3, 1.2500000e-02
296, 3, 1.2500000e-02
337, 3, 1.2500000e-02
378, 3, 1.2500000e-02
419, 3, 1.2500000e-02
460, 3, 1.2500000e-02
501, 3, 1.2500000e-02
542, 3, 1.2500000e-02
583, 3, 1.2500000e-02
624, 3, 1.2500000e-02
665, 3, 1.2500000e-02
706, 3, 1.2500000e-02
747, 3, 1.2500000e-02
788, 3, 1.2500000e-02
829, 3, 1.2500000e-02
870, 3, 1.2500000e-02
911, 3, 1.2500000e-02
952, 3, 1.2500000e-02
993, 3, 1.2500000e-02
1034, 3, 1.2500000e-02
1075, 3, 1.2500000e-02
1116, 3, 1.2500000e-02
1157, 3, 1.2500000e-02
1198, 3, 1.2500000e-02
1239, 3, 1.2500000e-02
1280, 3, 1.2500000e-02
1321, 3, 1.2500000e-02
1362, 3, 1.2500000e-02
1403, 3, 1.2500000e-02
1444, 3, 1.2500000e-02
1485, 3, 1.2500000e-02
1526, 3, 1.2500000e-02
1567, 3, 1.2500000e-02
1608, 3, 1.2500000e-02
1649, 3, 1.2500000e-02
**
*Output, field, number interval=110
*Node Output
U, V
*Output, history, time interval=1.0000000e-06
*Node Output, nset=RECV
U3
*End Step
