*Heading
** Guided-wave plate, T300/F593 unidirectional, 100 kHz five-cycle Hann burst.
** Generated by make_abaqus_inp.py; NOT verified in Abaqus (see README).
*Preprint, echo=NO, model=NO, history=NO, contact=NO
**
*Part, name=Part-1
*Node
1, 0.0000000e+00, 0.0000000e+00, 0.0000000e+00
2, 4.1666667e-02, 0.0000000e+00, 0.0000000e+00
3, 8.3333333e-02, 0.0000000e+00, 0.0000000e+00
4, 1.2500000e-01, 0.0000000e+00, 0.0000000e+00
5, 1.6666667e-01, 0.0000000e+00, 0.0000000e+00
6, 2.0833333e-01, 0.0000000e+00, 0.0000000e+00
7, 2.5000000e-01, 0.0000000e+00, 0.0000000e+00
8, 2.9166667e-01, 0.0000000e+00, 0.0000000e+00
9, 3.3333333e-01, 0.0000000e+00, 0.0000000e+00
10, 3.7500000e-01, 0.0000000e+00, 0.0000000e+00
11, 4.1666667e-01, 0.0000000e+00, 0.0000000e+00
12, 4.5833333e-01, 0.0000000e+00, 0.0000000e+00
13, 5.0000000e-01, 0.0000000e+00, 0.0000000e+00
14, 0.0000000e+00, 4.1666667e-02, 0.0000000e+00
15, 4.1666667e-02, 4.1666667e-02, 0.0000000e+00
16, 8.3333333e-02, 4.1666667e-02, 0.0000000e+00
17, 1.2500000e-01, 4.1666667e-02, 0.0000000e+00
18, 1.6666667e-01, 4.1666667e-02, 0.0000000e+00
19, 2.0833333e-01, 4.1666667e-02, 0.0000000e+00
20, 2.5000000e-01, 4.1666667e-02, 0.0000000e+00
21, 2.9166667e-01, 4.1666667e-02, 0.0000000e+00
22, 3.3333333e-01, 4.1666667e-02, 0.0000000e+00
23, 3.7500000e-01, 4.1666667e-02, 0.0000000e+00
24, 4.1666667e-01, 4.1666667e-02, 0.0000000e+00
25, 4.5833333e-01, 4.1666667e-02, 0.0000000e+00
26, 5.0000000e-01, 4.1666667e-02, 0.0000000e+00
27, 0.0000000e+00, 8.3333333e-02, 0.0000000e+00
28, 4.1666667e-02, 8.3333333e-02, 0.0000000e+00
29, 8.3333333e-02, 8.3333333e-02, 0.0000000e+00
30, 1.2500000e-01, 8.3333333e-02, 0.0000000e+00
31, 1.6666667e-01, 8.3333333e-02, 0.0000000e+00
32, 2.0833333e-01, 8.3333333e-02, 0.0000000e+00
33, 2.5000000e-01, 8.3333333e-02, 0.0000000e+00
34, 2.9166667e-01, 8.3333333e-02, 0.0000000e+00
35, 3.3333333e-01, 8.3333333e-02, 0.0000000e+00
36, 3.7500000e-01, 8.3333333e-02, 0.0000000e+00
37, 4.1666667e-01, 8.3333333e-02, 0.0000000e+00
38, 4.5833333e-01, 8.3333333e-02, 0.0000000e+00
39, 5.0000000e-01, 8.3333333e-02, 0.0000000e+00
40, 0.0000000e+00, 1.2500000e-01, 0.0000000e+00
41, 4.1666667e-02, 1.2500000e-01, 0.0000000e+00
42, 8.3333333e-02, 1.2500000e-01, 0.0000000e+00
43, 1.2500000e-01, 1.2500000e-01, 0.0000000e+00
44, 1.6666667e-01, 1.2500000e-01, 0.0000000e+00
45, 2.0833333e-01, 1.2500000e-01, 0.0000000e+00
46, 2.5000000e-01, 1.2500000e-01, 0.0000000e+00
47, 2.9166667e-01, 1.2500000e-01, 0.0000000e+00
48, 3.3333333e-01, 1.2500000e-01, 0.0000000e+00
49, 3.7500000e-01, 1.2500000e-01, 0.0000000e+00
50, 4.1666667e-01, 1.2500000e-01, 0.0000000e+00
51, 4.5833333e-01, 1.2500000e-01, 0.0000000e+00
52, 5.0000000e-01, 1.2500000e-01, 0.0000000e+00
53, 0.0000000e+00, 1.6666667e-01, 0.0000000e+00
54, 4.1666667e-02, 1.6666667e-01, 0.0000000e+00
55, 8.3333333e-02, 1.6666667e-01, 0.0000000e+00
56, 1.2500000e-01, 1.6666667e-01, 0.0000000e+00
57, 1.6666667e-01, 1.6666667e-01, 0.0000000e+00
58, 2.0833333e-01, 1.6666667e-01, 0.0000000e+00
59, 2.5000000e-01, 1.6666667e-01, 0.0000000e+00
60, 2.9166667e-01, 1.6666667e-01, 0.0000000e+00
61, 3.3333333e-01, 1.6666667e-01, 0.0000000e+00
62, 3.7500000e-01, 1.6666667e-01, 0.0000000e+00
63, 4.1666667e-01, 1.6666667e-01, 0.0000000e+00
64, 4.5833333e-01, 1.6666667e-01, 0.0000000e+00
65, 5.0000000e-01, 1.6666667e-01, 0.0000000e+00
66, 0.0000000e+00, 2.0833333e-01, 0.0000000e+00
67, 4.1666667e-02, 2.0833333e-01, 0.0000000e+00
68, 8.3333333e-02, 2.0833333e-01, 0.0000000e+00
69, 1.2500000e-01, 2.0833333e-01, 0.0000000e+00
70, 1.6666667e-01, 2.0833333e-01, 0.0000000e+00
71, 2.0833333e-01, 2.0833333e-01, 0.0000000e+00
72, 2.5000000e-01, 2.0833333e-01, 0.0000000e+00
73, 2.9166667e-01, 2.0833333e-01, 0.0000000e+00
74, 3.3333333e-01, 2.0833333e-01, 0.0000000e+00
75, 3.7500000e-01, 2.0833333e-01, 0.0000000e+00
76, 4.1666667e-01, 2.0833333e-01, 0.0000000e+00
77, 4.5833333e-01, 2.0833333e-01, 0.0000000e+00
78, 5.0000000e-01, 2.0833333e-01, 0.0000000e+00
79, 0.0000000e+00, 2.5000000e-01, 0.0000000e+00
80, 4.1666667e-02, 2.5000000e-01, 0.0000000e+00
81, 8.3333333e-02, 2.5000000e-01, 0.0000000e+00
82, 1.2500000e-01, 2.5000000e-01, 0.0000000e+00
83, 1.6666667e-01, 2.5000000e-01, 0.0000000e+00
84, 2.0833333e-01, 2.5000000e-01, 0.0000000e+00
85, 2.5000000e-01, 2.5000000e-01, 0.0000000e+00
86, 2.9166667e-01, 2.5000000e-01, 0.0000000e+00
87, 3.3333333e-01, 2.5000000e-01, 0.0000000e+00
88, 3.7500000e-01, 2.5000000e-01, 0.0000000e+00
89, 4.1666667e-01, 2.5000000e-01, 0.0000000e+00
90, 4.5833333e-01, 2.5000000e-01, 0.0000000e+00
91, 5.0000000e-01, 2.5000000e-01, 0.0000000e+00
92, 0.0000000e+00, 2.9166667e-01, 0.0000000e+00
93, 4.1666667e-02, 2.9166667e-01, 0.0000000e+00
94, 8.3333333e-02, 2.9166667e-01, 0.0000000e+00
95, 1.2500000e-01, 2.9166667e-01, 0.0000000e+00
96, 1.6666667e-01, 2.9166667e-01, 0.0000000e+00
97, 2.0833333e-01, 2.9166667e-01, 0.0000000e+00
98, 2.5000000e-01, 2.9166667e-01, 0.0000000e+00
99, 2.9166667e-01, 2.9166667e-01, 0.0000000e+00
100, 3.3333333e-01, 2.9166667e-01, 0.0000000e+00
101, 3.7500000e-01, 2.9166667e-01, 0.0000000e+00
102, 4.1666667e-01, 2.9166667e-01, 0.0000000e+00
103, 4.5833333e-01, 2.9166667e-01, 0.0000000e+00
104, 5.0000000e-01, 2.9166667e-01, 0.0000000e+00
105, 0.0000000e+00, 3.3333333e-01, 0.0000000e+00
106, 4.1666667e-02, 3.3333333e-01, 0.0000000e+00
107, 8.3333333e-02, 3.3333333e-01, 0.0000000e+00
108, 1.2500000e-01, 3.3333333e-01, 0.0000000e+00
109, 1.6666667e-01, 3.3333333e-01, 0.0000000e+00
110, 2.0833333e-01, 3.3333333e-01, 0.0000000e+00
111, 2.5000000e-01, 3.3333333e-01, 0.0000000e+00
112, 2.9166667e-01, 3.3333333e-01, 0.0000000e+00
113, 3.3333333e-01, 3.3333333e-01, 0.0000000e+00
114, 3.7500000e-01, 3.3333333e-01, 0.0000000e+00
115, 4.1666667e-01, 3.3333333e-01, 0.0000000e+00
116, 4.5833333e-01, 3.3333333e-01, 0.0000000e+00
117, 5.0000000e-01, 3.3333333e-01, 0.0000000e+00
118, 0.0000000e+00, 3.7500000e-01, 0.0000000e+00
119, 4.1666667e-02, 3.7500000e-01, 0.0000000e+00
120, 8.3333333e-02, 3.7500000e-01, 0.0000000e+00
121, 1.2500000e-01, 3.7500000e-01, 0.0000000e+00
122, 1.6666667e-01, 3.7500000e-01, 0.0000000e+00
123, 2.0833333e-01, 3.7500000e-01, 0.0000000e+00
124, 2.5000000e-01, 3.7500000e-01, 0.0000000e+00
125, 2.9166667e-01, 3.7500000e-01, 0.0000000e+00
126, 3.3333333e-01, 3.7500000e-01, 0.0000000e+00
127, 3.7500000e-01, 3.7500000e-01, 0.0000000e+00
128, 4.1666667e-01, 3.7500000e-01, 0.0000000e+00
129, 4.5833333e-01, 3.7500000e-01, 0.0000000e+00
130, 5.0000000e-01, 3.7500000e-01, 0.0000000e+00
131, 0.0000000e+00, 4.1666667e-01, 0.0000000e+00
132, 4.1666667e-02, 4.1666667e-01, 0.0000000e+00
133, 8.3333333e-02, 4.1666667e-01, 0.0000000e+00
134, 1.2500000e-01, 4.1666667e-01, 0.0000000e+00
135, 1.6666667e-01, 4.1666667e-01, 0.0000000e+00
136, 2.0833333e-01, 4.1666667e-01, 0.0000000e+00
137, 2.5000000e-01, 4.1666667e-01, 0.0000000e+00
138, 2.9166667e-01, 4.1666667e-01, 0.0000000e+00
139, 3.3333333e-01, 4.1666667e-01, 0.0000000e+00
140, 3.7500000e-01, 4.1666667e-01, 0.0000000e+00
141, 4.1666667e-01, 4.1666667e-01, 0.0000000e+00
142, 4.5833333e-01, 4.1666667e-01, 0.0000000e+00
143, 5.0000000e-01, 4.1666667e-01, 0.0000000e+00
144, 0.0000000e+00, 4.5833333e-01, 0.0000000e+00
145, 4.1666667e-02, 4.5833333e-01, 0.0000000e+00
146, 8.3333333e-02, 4.5833333e-01, 0.0000000e+00
147, 1.2500000e-01, 4.5833333e-01, 0.0000000e+00
148, 1.6666667e-01, 4.5833333e-01, 0.0000000e+00
149, 2.0833333e-01, 4.5833333e-01, 0.0000000e+00
150, 2.5000000e-01, 4.5833333e-01, 0.0000000e+00
151, 2.9166667e-01, 4.5833333e-01, 0.0000000e+00
152, 3.3333333e-01, 4.5833333e-01, 0.0000000e+00
153, 3.7500000e-01, 4.5833333e-01, 0.0000000e+00
154, 4.1666667e-01, 4.5833333e-01, 0.0000000e+00
155, 4.5833333e-01, 4.5833333e-01, 0.0000000e+00
156, 5.0000000e-01, 4.5833333e-01, 0.0000000e+00
157, 0.0000000e+00, 5.0000000e-01, 0.0000000e+00
158, 4.1666667e-02, 5.0000000e-01, 0.0000000e+00
159, 8.3333333e-02, 5.0000000e-01, 0.0000000e+00
160, 1.2500000e-01, 5.0000000e-01, 0.0000000e+00
161, 1.6666667e-01, 5.0000000e-01, 0.0000000e+00
162, 2.0833333e-01, 5.0000000e-01, 0.0000000e+00
163, 2.5000000e-01, 5.0000000e-01, 0.0000000e+00
164, 2.9166667e-01, 5.0000000e-01, 0.0000000e+00
165, 3.3333333e-01, 5.0000000e-01, 0.0000000e+00
166, 3.7500000e-01, 5.0000000e-01, 0.0000000e+00
167, 4.1666667e-01, 5.0000000e-01, 0.0000000e+00
168, 4.5833333e-01, 5.0000000e-01, 0.0000000e+00
169, 5.0000000e-01, 5.0000000e-01, 0.0000000e+00
170, 0.0000000e+00, 0.0000000e+00, 4.3000000e-04
171, 4.1666667e-02, 0.0000000e+00, 4.3000000e-04
172, 8.3333333e-02, 0.0000000e+00, 4.3000000e-04
173, 1.2500000e-01, 0.0000000e+00, 4.3000000e-04
174, 1.6666667e-01, 0.0000000e+00, 4.3000000e-04
175, 2.0833333e-01, 0.0000000e+00, 4.3000000e-04
176, 2.5000000e-01, 0.0000000e+00, 4.3000000e-04
177, 2.9166667e-01, 0.0000000e+00, 4.3000000e-04
178, 3.3333333e-01, 0.0000000e+00, 4.3000000e-04
179, 3.7500000e-01, 0.0000000e+00, 4.3000000e-04
180, 4.1666667e-01, 0.0000000e+00, 4.3000000e-04
181, 4.5833333e-01, 0.0000000e+00, 4.3000000e-04
182, 5.0000000e-01, 0.0000000e+00, 4.3000000e-04
183, 0.0000000e+00, 4.1666667e-02, 4.3000000e-04
184, 4.1666667e-02, 4.1666667e-02, 4.3000000e-04
185, 8.3333333e-02, 4.1666667e-02, 4.3000000e-04
186, 1.2500000e-01, 4.1666667e-02, 4.3000000e-04
187, 1.6666667e-01, 4.1666667e-02, 4.3000000e-04
188, 2.0833333e-01, 4.1666667e-02, 4.3000000e-04
189, 2.5000000e-01, 4.1666667e-02, 4.3000000e-04
190, 2.9166667e-01, 4.1666667e-02, 4.3000000e-04
191, 3.3333333e-01, 4.1666667e-02, 4.3000000e-04
192, 3.7500000e-01, 4.1666667e-02, 4.3000000e-04
193, 4.1666667e-01, 4.1666667e-02, 4.3000000e-04
194, 4.5833333e-01, 4.1666667e-02, 4.3000000e-04
195, 5.0000000e-01, 4.1666667e-02, 4.3000000e-04
196, 0.0000000e+00, 8.3333333e-02, 4.3000000e-04
197, 4.1666667e-02, 8.3333333e-02, 4.3000000e-04
198, 8.3333333e-02, 8.3333333e-02, 4.3000000e-04
199, 1.2500000e-01, 8.3333333e-02, 4.3000000e-04
200, 1.6666667e-01, 8.3333333e-02, 4.3000000e-04
201, 2.0833333e-01, 8.3333333e-02, 4.3000000e-04
202, 2.5000000e-01, 8.3333333e-02, 4.3000000e-04
203, 2.9166667e-01, 8.3333333e-02, 4.3000000e-04
204, 3.3333333e-01, 8.3333333e-02, 4.3000000e-04
205, 3.7500000e-01, 8.3333333e-02, 4.3000000e-04
206, 4.1666667e-01, 8.3333333e-02, 4.3000000e-04
207, 4.5833333e-01, 8.3333333e-02, 4.3000000e-04
208, 5.0000000e-01, 8.3333333e-02, 4.3000000e-04
209, 0.0000000e+00, 1.2500000e-01, 4.3000000e-04
210, 4.1666667e-02, 1.2500000e-01, 4.3000000e-04
211, 8.3333333e-02, 1.2500000e-01, 4.3000000e-04
212, 1.2500000e-01, 1.2500000e-01, 4.3000000e-04
213, 1.6666667e-01, 1.2500000e-01, 4.3000000e-04
214, 2.0833333e-01, 1.2500000e-01, 4.3000000e-04
215, 2.5000000e-01, 1.2500000e-01, 4.3000000e-04
216, 2.9166667e-01, 1.2500000e-01, 4.3000000e-04
217, 3.3333333e-01, 1.2500000e-01, 4.3000000e-04
218, 3.7500000e-01, 1.2500000e-01, 4.3000000e-04
219, 4.1666667e-01, 1.2500000e-01, 4.3000000e-04
220, 4.5833333e-01, 1.2500000e-01, 4.3000000e-04
221, 5.0000000e-01, 1.2500000e-01, 4.3000000e-04
222, 0.0000000e+00, 1.6666667e-01, 4.3000000e-04
223, 4.1666667e-02, 1.6666667e-01, 4.3000000e-04
224, 8.3333333e-02, 1.6666667e-01, 4.3000000e-04
225, 1.2500000e-01, 1.6666667e-01, 4.3000000e-04
226, 1.6666667e-01, 1.6666667e-01, 4.3000000e-04
227, 2.0833333e-01, 1.6666667e-01, 4.3000000e-04
228, 2.5000000e-01, 1.6666667e-01, 4.3000000e-04
229, 2.9166667e-01, 1.6666667e-01, 4.3000000e-04
230, 3.3333333e-01, 1.6666667e-01, 4.3000000e-04
231, 3.7500000e-01, 1.6666667e-01, 4.3000000e-04
232, 4.1666667e-01, 1.6666667e-01, 4.3000000e-04
233, 4.5833333e-01, 1.6666667e-01, 4.3000000e-04
234, 5.0000000e-01, 1.6666667e-01, 4.3000000e-04
235, 0.0000000e+00, 2.0833333e-01, 4.3000000e-04
236, 4.1666667e-02, 2.0833333e-01, 4.3000000e-04
237, 8.3333333e-02, 2.0833333e-01, 4.3000000e-04
238, 1.2500000e-01, 2.0833333e-01, 4.3000000e-04
239, 1.6666667e-01, 2.0833333e-01, 4.3000000e-04
240, 2.0833333e-01, 2.0833333e-01, 4.3000000e-04
241, 2.5000000e-01, 2.0833333e-01, 4.3000000e-04
242, 2.9166667e-01, 2.0833333e-01, 4.3000000e-04
243, 3.3333333e-01, 2.0833333e-01, 4.3000000e-04
244, 3.7500000e-01, 2.0833333e-01, 4.3000000e-04
245, 4.1666667e-01, 2.0833333e-01, 4.3000000e-04
246, 4.5833333e-01, 2.0833333e-01, 4.3000000e-04
247, 5.0000000e-01, 2.0833333e-01, 4.3000000e-04
248, 0.0000000e+00, 2.5000000e-01, 4.3000000e-04
249, 4.1666667e-02, 2.5000000e-01, 4.3000000e-04
250, 8.3333333e-02, 2.5000000e-01, 4.3000000e-04
251, 1.2500000e-01, 2.5000000e-01, 4.3000000e-04
252, 1.6666667e-01, 2.5000000e-01, 4.3000000e-04
253, 2.0833333e-01, 2.5000000e-01, 4.3000000e-04
254, 2.5000000e-01, 2.5000000e-01, 4.3000000e-04
255, 2.9166667e-01, 2.5000000e-01, 4.3000000e-04
256, 3.3333333e-01, 2.5000000e-01, 4.3000000e-04
257, 3.7500000e-01, 2.5000000e-01, 4.3000000e-04
258, 4.1666667e-01, 2.5000000e-01, 4.3000000e-04
259, 4.5833333e-01, 2.5000000e-01, 4.3000000e-04
260, 5.0000000e-01, 2.5000000e-01, 4.3000000e-04
261, 0.0000000e+00, 2.9166667e-01, 4.3000000e-04
262, 4.1666667e-02, 2.9166667e-01, 4.3000000e-04
263, 8.3333333e-02, 2.9166667e-01, 4.3000000e-04
264, 1.2500000e-01, 2.9166667e-01, 4.3000000e-04
265, 1.6666667e-01, 2.9166667e-01, 4.3000000e-04
266, 2.0833333e-01, 2.9166667e-01, 4.3000000e-04
267, 2.5000000e-01, 2.9166667e-01, 4.3000000e-04
268, 2.9166667e-01, 2.9166667e-01, 4.3000000e-04
269, 3.3333333e-01, 2.9166667e-01, 4.3000000e-04
270, 3.7500000e-01, 2.9166667e-01, 4.3000000e-04
271, 4.1666667e-01, 2.9166667e-01, 4.3000000e-04
272, 4.5833333e-01, 2.9166667e-01, 4.3000000e-04
273, 5.0000000e-01, 2.9166667e-01, 4.3000000e-04
274, 0.0000000e+00, 3.3333333e-01, 4.3000000e-04
275, 4.1666667e-02, 3.3333333e-01, 4.3000000e-04
276, 8.3333333e-02, 3.3333333e-01, 4.3000000e-04
277, 1.2500000e-01, 3.3333333e-01, 4.3000000e-04
278, 1.6666667e-01, 3.3333333e-01, 4.3000000e-04
279, 2.0833333e-01, 3.3333333e-01, 4.3000000e-04
280, 2.5000000e-01, 3.3333333e-01, 4.3000000e-04
281, 2.9166667e-01, 3.3333333e-01, 4.3000000e-04
282, 3.3333333e-01, 3.3333333e-01, 4.3000000e-04
283, 3.7500000e-01, 3.3333333e-01, 4.3000000e-04
284, 4.1666667e-01, 3.3333333e-01, 4.3000000e-04
285, 4.5833333e-01, 3.3333333e-01, 4.3000000e-04
286, 5.0000000e-01, 3.3333333e-01, 4.3000000e-04
287, 0.0000000e+00, 3.7500000e-01, 4.3000000e-04
288, 4.1666667e-02, 3.7500000e-01, 4.3000000e-04
289, 8.3333333e-02, 3.7500000e-01, 4.3000000e-04
290, 1.2500000e-01, 3.7500000e-01, 4.3000000e-04
291, 1.6666667e-01, 3.7500000e-01, 4.3000000e-04
292, 2.0833333e-01, 3.7500000e-01, 4.3000000e-04
293, 2.5000000e-01, 3.7500000e-01, 4.3000000e-04
294, 2.9166667e-01, 3.7500000e-01, 4.3000000e-04
295, 3.3333333e-01, 3.7500000e-01, 4.3000000e-04
296, 3.7500000e-01, 3.7500000e-01, 4.3000000e-04
297, 4.1666667e-01, 3.7500000e-01, 4.3000000e-04
298, 4.5833333e-01, 3.7500000e-01, 4.3000000e-04
299, 5.0000000e-01, 3.7500000e-01, 4.3000000e-04
300, 0.0000000e+00, 4.1666667e-01, 4.3000000e-04
301, 4.1666667e-02, 4.1666667e-01, 4.3000000e-04
302, 8.3333333e-02, 4.1666667e-01, 4.3000000e-04
303, 1.2500000e-01, 4.1666667e-01, 4.3000000e-04
304, 1.6666667e-01, 4.1666667e-01, 4.3000000e-04
305, 2.0833333e-01, 4.1666667e-01, 4.3000000e-04
306, 2.5000000e-01, 4.1666667e-01, 4.3000000e-04
307, 2.9166667e-01, 4.1666667e-01, 4.3000000e-04
308, 3.3333333e-01, 4.1666667e-01, 4.3000000e-04
309, 3.7500000e-01, 4.1666667e-01, 4.3000000e-04
310, 4.1666667e-01, 4.1666667e-01, 4.3000000e-04
311, 4.5833333e-01, 4.1666667e-01, 4.3000000e-04
312, 5.0000000e-01, 4.1666667e-01, 4.3000000e-04
313, 0.0000000e+00, 4.5833333e-01, 4.3000000e-04
314, 4.1666667e-02, 4.5833333e-01, 4.3000000e-04
315, 8.3333333e-02, 4.5833333e-01, 4.3000000e-04
316, 1.2500000e-01, 4.5833333e-01, 4.3000000e-04
317, 1.6666667e-01, 4.5833333e-01, 4.3000000e-04
318, 2.0833333e-01, 4.5833333e-01, 4.3000000e-04
319, 2.5000000e-01, 4.5833333e-01, 4.3000000e-04
320, 2.9166667e-01, 4.5833333e-01, 4.3000000e-04
321, 3.3333333e-01, 4.5833333e-01, 4.3000000e-04
322, 3.7500000e-01, 4.5833333e-01, 4.3000000e-04
323, 4.1666667e-01, 4.5833333e-01, 4.3000000e-04
324, 4.5833333e-01, 4.5833333e-01, 4.3000000e-04
325, 5.0000000e-01, 4.5833333e-01, 4.3000000e-04
326, 0.0000000e+00, 5.0000000e-01, 4.3000000e-04
327, 4.1666667e-02, 5.0000000e-01, 4.3000000e-04
328, 8.3333333e-02, 5.0000000e-01, 4.3000000e-04
329, 1.2500000e-01, 5.0000000e-01, 4.3000000e-04
330, 1.6666667e-01, 5.0000000e-01, 4.3000000e-04
331, 2.0833333e-01, 5.0000000e-01, 4.3000000e-04
332, 2.5000000e-01, 5.0000000e-01, 4.3000000e-04
333, 2.9166667e-01, 5.0000000e-01, 4.3000000e-04
334, 3.3333333e-01, 5.0000000e-01, 4.3000000e-04
335, 3.7500000e-01, 5.0000000e-01, 4.3000000e-04
336, 4.1666667e-01, 5.0000000e-01, 4.3000000e-04
337, 4.5833333e-01, 5.0000000e-01, 4.3000000e-04
338, 5.0000000e-01, 5.0000000e-01, 4.3000000e-04
339, 0.0000000e+00, 0.0000000e+00, 8.6000000e-04
340, 4.1666667e-02, 0.0000000e+00, 8.6000000e-04
341, 8.3333333e-02, 0.0000000e+00, 8.6000000e-04
342, 1.2500000e-01, 0.0000000e+00, 8.6000000e-04
343, 1.6666667e-01, 0.0000000e+00, 8.6000000e-04
344, 2.0833333e-01, 0.0000000e+00, 8.6000000e-04
345, 2.5000000e-01, 0.0000000e+00, 8.6000000e-04
346, 2.9166667e-01, 0.0000000e+00, 8.6000000e-04
347, 3.3333333e-01, 0.0000000e+00, 8.6000000e-04
348, 3.7500000e-01, 0.0000000e+00, 8.6000000e-04
349, 4.1666667e-01, 0.0000000e+00, 8.6000000e-04
350, 4.5833333e-01, 0.0000000e+00, 8.6000000e-04
351, 5.0000000e-01, 0.0000000e+00, 8.6000000e-04
352, 0.0000000e+00, 4.1666667e-02, 8.6000000e-04
353, 4.1666667e-02, 4.1666667e-02, 8.6000000e-04
354, 8.3333333e-02, 4.1666667e-02, 8.6000000e-04
355, 1.2500000e-01, 4.1666667e-02, 8.6000000e-04
356, 1.6666667e-01, 4.1666667e-02, 8.6000000e-04
357, 2.0833333e-01, 4.1666667e-02, 8.6000000e-04
358, 2.5000000e-01, 4.1666667e-02, 8.6000000e-04
359, 2.9166667e-01, 4.1666667e-02, 8.6000000e-04
360, 3.3333333e-01, 4.1666667e-02, 8.6000000e-04
361, 3.7500000e-01, 4.1666667e-02, 8.6000000e-04
362, 4.1666667e-01, 4.1666667e-02, 8.6000000e-04
363, 4.5833333e-01, 4.1666667e-02, 8.6000000e-04
364, 5.0000000e-01, 4.1666667e-02, 8.6000000e-04
365, 0.0000000e+00, 8.3333333e-02, 8.6000000e-04
366, 4.1666667e-02, 8.3333333e-02, 8.6000000e-04
367, 8.3333333e-02, 8.3333333e-02, 8.6000000e-04
368, 1.2500000e-01, 8.3333333e-02, 8.6000000e-04
369, 1.6666667e-01, 8.3333333e-02, 8.6000000e-04
370, 2.0833333e-01, 8.3333333e-02, 8.6000000e-04
371, 2.5000000e-01, 8.3333333e-02, 8.6000000e-04
372, 2.9166667e-01, 8.3333333e-02, 8.6000000e-04
373, 3.3333333e-01, 8.3333333e-02, 8.6000000e-04
374, 3.7500000e-01, 8.3333333e-02, 8.6000000e-04
375, 4.1666667e-01, 8.3333333e-02, 8.6000000e-04
376, 4.5833333e-01, 8.3333333e-02, 8.6000000e-04
377, 5.0000000e-01, 8.3333333e-02, 8.6000000e-04
378, 0.0000000e+00, 1.2500000e-01, 8.6000000e-04
379, 4.1666667e-02, 1.2500000e-01, 8.6000000e-04
380, 8.3333333e-02, 1.2500000e-01, 8.6000000e-04
381, 1.2500000e-01, 1.2500000e-01, 8.6000000e-04
382, 1.6666667e-01, 1.2500000e-01, 8.6000000e-04
383, 2.0833333e-01, 1.2500000e-01, 8.6000000e-04
384, 2.5000000e-01, 1.2500000e-01, 8.6000000e-04
385, 2.9166667e-01, 1.2500000e-01, 8.6000000e-04
386, 3.3333333e-01, 1.2500000e-01, 8.6000000e-04
387, 3.7500000e-01, 1.2500000e-01, 8.6000000e-04
388, 4.1666667e-01, 1.2500000e-01, 8.6000000e-04
389, 4.5833333e-01, 1.2500000e-01, 8.6000000e-04
390, 5.0000000e-01, 1.2500000e-01, 8.6000000e-04
391, 0.0000000e+00, 1.6666667e-01, 8.6000000e-04
392, 4.1666667e-02, 1.6666667e-01, 8.6000000e-04
393, 8.3333333e-02, 1.6666667e-01, 8.6000000e-04
394, 1.2500000e-01, 1.6666667e-01, 8.6000000e-04
395, 1.6666667e-01, 1.6666667e-01, 8.6000000e-04
396, 2.0833333e-01, 1.6666667e-01, 8.6000000e-04
397, 2.5000000e-01, 1.6666667e-01, 8.6000000e-04
398, 2.9166667e-01, 1.6666667e-01, 8.6000000e-04
399, 3.3333333e-01, 1.6666667e-01, 8.6000000e-04
400, 3.7500000e-01, 1.6666667e-01, 8.6000000e-04
401, 4.1666667e-01, 1.6666667e-01, 8.6000000e-04
402, 4.5833333e-01, 1.6666667e-01, 8.6000000e-04
403, 5.0000000e-01, 1.6666667e-01, 8.6000000e-04
404, 0.0000000e+00, 2.0833333e-01, 8.6000000e-04
405, 4.1666667e-02, 2.0833333e-01, 8.6000000e-04
406, 8.3333333e-02, 2.0833333e-01, 8.6000000e-04
407, 1.2500000e-01, 2.0833333e-01, 8.6000000e-04
408, 1.6666667e-01, 2.0833333e-01, 8.6000000e-04
409, 2.0833333e-01, 2.0833333e-01, 8.6000000e-04
410, 2.5000000e-01, 2.0833333e-01, 8.6000000e-04
411, 2.9166667e-01, 2.0833333e-01, 8.6000000e-04
412, 3.3333333e-01, 2.0833333e-01, 8.6000000e-04
413, 3.7500000e-01, 2.0833333e-01, 8.6000000e-04
414, 4.1666667e-01, 2.0833333e-01, 8.6000000e-04
415, 4.5833333e-01, 2.0833333e-01, 8.6000000e-04
416, 5.0000000e-01, 2.0833333e-01, 8.6000000e-04
417, 0.0000000e+00, 2.5000000e-01, 8.6000000e-04
418, 4.1666667e-02, 2.5000000e-01, 8.6000000e-04
419, 8.3333333e-02, 2.5000000e-01, 8.6000000e-04
420, 1.2500000e-01, 2.5000000e-01, 8.6000000e-04
421, 1.6666667e-01, 2.5000000e-01, 8.6000000e-04
422, 2.0833333e-01, 2.5000000e-01, 8.6000000e-04
423, 2.5000000e-01, 2.5000000e-01, 8.6000000e-04
424, 2.9166667e-01, 2.5000000e-01, 8.6000000e-04
425, 3.3333333e-01, 2.5000000e-01, 8.6000000e-04
426, 3.7500000e-01, 2.5000000e-01, 8.6000000e-04
427, 4.1666667e-01, 2.5000000e-01, 8.6000000e-04
428, 4.5833333e-01, 2.5000000e-01, 8.6000000e-04
429, 5.0000000e-01, 2.5000000e-01, 8.6000000e-04
430, 0.0000000e+00, 2.9166667e-01, 8.6000000e-04
431, 4.1666667e-02, 2.9166667e-01, 8.6000000e-04
432, 8.3333333e-02, 2.9166667e-01, 8.6000000e-04
433, 1.2500000e-01, 2.9166667e-01, 8.6000000e-04
434, 1.6666667e-01, 2.9166667e-01, 8.6000000e-04
435, 2.0833333e-01, 2.9166667e-01, 8.6000000e-04
436, 2.5000000e-01, 2.9166667e-01, 8.6000000e-04
437, 2.9166667e-01, 2.9166667e-01, 8.6000000e-04
438, 3.3333333e-01, 2.9166667e-01, 8.6000000e-04
439, 3.7500000e-01, 2.9166667e-01, 8.6000000e-04
440, 4.1666667e-01, 2.9166667e-01, 8.6000000e-04
441, 4.5833333e-01, 2.9166667e-01, 8.6000000e-04
442, 5.0000000e-01, 2.9166667e-01, 8.6000000e-04
443, 0.0000000e+00, 3.3333333e-01, 8.6000000e-04
444, 4.1666667e-02, 3.3333333e-01, 8.6000000e-04
445, 8.3333333e-02, 3.3333333e-01, 8.6000000e-04
446, 1.2500000e-01, 3.3333333e-01, 8.6000000e-04
447, 1.6666667e-01, 3.3333333e-01, 8.6000000e-04
448, 2.0833333e-01, 3.3333333e-01, 8.6000000e-04
449, 2.5000000e-01, 3.3333333e-01, 8.6000000e-04
450, 2.9166667e-01, 3.3333333e-01, 8.6000000e-04
451, 3.3333333e-01, 3.3333333e-01, 8.6000000e-04
452, 3.7500000e-01, 3.3333333e-01, 8.6000000e-04
453, 4.1666667e-01, 3.3333333e-01, 8.6000000e-04
454, 4.5833333e-01, 3.3333333e-01, 8.6000000e-04
455, 5.0000000e-01, 3.3333333e-01, 8.6000000e-04
456, 0.0000000e+00, 3.7500000e-01, 8.6000000e-04
457, 4.1666667e-02, 3.7500000e-01, 8.6000000e-04
458, 8.3333333e-02, 3.7500000e-01, 8.6000000e-04
459, 1.2500000e-01, 3.7500000e-01, 8.6000000e-04
460, 1.6666667e-01, 3.7500000e-01, 8.6000000e-04
461, 2.0833333e-01, 3.7500000e-01, 8.6000000e-04
462, 2.5000000e-01, 3.7500000e-01, 8.6000000e-04
463, 2.9166667e-01, 3.7500000e-01, 8.6000000e-04
464, 3.3333333e-01, 3.7500000e-01, 8.6000000e-04
465, 3.7500000e-01, 3.7500000e-01, 8.6000000e-04
466, 4.1666667e-01, 3.7500000e-01, 8.6000000e-04
467, 4.5833333e-01, 3.7500000e-01, 8.6000000e-04
468, 5.0000000e-01, 3.7500000e-01, 8.6000000e-04
469, 0.0000000e+00, 4.1666667e-01, 8.6000000e-04
470, 4.1666667e-02, 4.1666667e-01, 8.6000000e-04
471, 8.3333333e-02, 4.1666667e-01, 8.6000000e-04
472, 1.2500000e-01, 4.1666667e-01, 8.6000000e-04
473, 1.6666667e-01, 4.1666667e-01, 8.6000000e-04
474, 2.0833333e-01, 4.1666667e-01, 8.6000000e-04
475, 2.5000000e-01, 4.1666667e-01, 8.6000000e-04
476, 2.9166667e-01, 4.1666667e-01, 8.6000000e-04
477, 3.3333333e-01, 4.1666667e-01, 8.6000000e-04
478, 3.7500000e-01, 4.1666667e-01, 8.6000000e-04
479, 4.1666667e-01, 4.1666667e-01, 8.6000000e-04
480, 4.5833333e-01, 4.1666667e-01, 8.6000000e-04
481, 5.0000000e-01, 4.1666667e-01, 8.6000000e-04
482, 0.0000000e+00, 4.5833333e-01, 8.6000000e-04
483, 4.1666667e-02, 4.5833333e-01, 8.6000000e-04
484, 8.3333333e-02, 4.5833333e-01, 8.6000000e-04
485, 1.2500000e-01, 4.5833333e-01, 8.6000000e-04
486, 1.6666667e-01, 4.5833333e-01, 8.6000000e-04
487, 2.0833333e-01, 4.5833333e-01, 8.6000000e-04
488, 2.5000000e-01, 4.5833333e-01, 8.6000000e-04
489, 2.9166667e-01, 4.5833333e-01, 8.6000000e-04
490, 3.3333333e-01, 4.5833333e-01, 8.6000000e-04
491, 3.7500000e-01, 4.5833333e-01, 8.6000000e-04
492, 4.1666667e-01, 4.5833333e-01, 8.6000000e-04
493, 4.5833333e-01, 4.5833333e-01, 8.6000000e-04
494, 5.0000000e-01, 4.5833333e-01, 8.6000000e-04
495, 0.0000000e+00, 5.0000000e-01, 8.6000000e-04
496, 4.1666667e-02, 5.0000000e-01, 8.6000000e-04
497, 8.3333333e-02, 5.0000000e-01, 8.6000000e-04
498, 1.2500000e-01, 5.0000000e-01, 8.6000000e-04
499, 1.6666667e-01, 5.0000000e-01, 8.6000000e-04
500, 2.0833333e-01, 5.0000000e-01, 8.6000000e-04
501, 2.5000000e-01, 5.0000000e-01, 8.6000000e-04
502, 2.9166667e-01, 5.0000000e-01, 8.6000000e-04
503, 3.3333333e-01, 5.0000000e-01, 8.6000000e-04
504, 3.7500000e-01, 5.0000000e-01, 8.6000000e-04
505, 4.1666667e-01, 5.0000000e-01, 8.6000000e-04
506, 4.5833333e-01, 5.0000000e-01, 8.6000000e-04
507, 5.0000000e-01, 5.0000000e-01, 8.6000000e-04
508, 0.0000000e+00, 0.0000000e+00, 1.2900000e-03
509, 4.1666667e-02, 0.0000000e+00, 1.2900000e-03
510, 8.3333333e-02, 0.0000000e+00, 1.2900000e-03
511, 1.2500000e-01, 0.0000000e+00, 1.2900000e-03
512, 1.6666667e-01, 0.0000000e+00, 1.2900000e-03
513, 2.0833333e-01, 0.0000000e+00, 1.2900000e-03
514, 2.5000000e-01, 0.0000000e+00, 1.2900000e-03
515, 2.9166667e-01, 0.0000000e+00, 1.2900000e-03
516, 3.3333333e-01, 0.0000000e+00, 1.2900000e-03
517, 3.7500000e-01, 0.0000000e+00, 1.2900000e-03
518, 4.1666667e-01, 0.0000000e+00, 1.2900000e-03
519, 4.5833333e-01, 0.0000000e+00, 1.2900000e-03
520, 5.0000000e-01, 0.0000000e+00, 1.2900000e-03
521, 0.0000000e+00, 4.1666667e-02, 1.2900000e-03
522, 4.1666667e-02, 4.1666667e-02, 1.2900000e-03
523, 8.3333333e-02, 4.1666667e-02, 1.2900000e-03
524, 1.2500000e-01, 4.1666667e-02, 1.2900000e-03
525, 1.6666667e-01, 4.1666667e-02, 1.2900000e-03
526, 2.0833333e-01, 4.1666667e-02, 1.2900000e-03
527, 2.5000000e-01, 4.1666667e-02, 1.2900000e-03
528, 2.9166667e-01, 4.1666667e-02, 1.2900000e-03
529, 3.3333333e-01, 4.1666667e-02, 1.2900000e-03
530, 3.7500000e-01, 4.1666667e-02, 1.2900000e-03
531, 4.1666667e-01, 4.1666667e-02, 1.2900000e-03
532, 4.5833333e-01, 4.1666667e-02, 1.2900000e-03
533, 5.0000000e-01, 4.1666667e-02, 1.2900000e-03
534, 0.0000000e+00, 8.3333333e-02, 1.2900000e-03
535, 4.1666667e-02, 8.3333333e-02, 1.2900000e-03
536, 8.3333333e-02, 8.3333333e-02, 1.2900000e-03
537, 1.2500000e-01, 8.3333333e-02, 1.2900000e-03
538, 1.6666667e-01, 8.3333333e-02, 1.2900000e-03
539, 2.0833333e-01, 8.3333333e-02, 1.2900000e-03
540, 2.5000000e-01, 8.3333333e-02, 1.2900000e-03
541, 2.9166667e-01, 8.3333333e-02, 1.2900000e-03
542, 3.3333333e-01, 8.3333333e-02, 1.2900000e-03
543, 3.7500000e-01, 8.3333333e-02, 1.2900000e-03
544, 4.1666667e-01, 8.3333333e-02, 1.2900000e-03
545, 4.5833333e-01, 8.3333333e-02, 1.2900000e-03
546, 5.0000000e-01, 8.3333333e-02, 1.2900000e-03
547, 0.0000000e+00, 1.2500000e-01, 1.2900000e-03
548, 4.1666667e-02, 1.2500000e-01, 1.2900000e-03
549, 8.3333333e-02, 1.2500000e-01, 1.2900000e-03
550, 1.2500000e-01, 1.2500000e-01, 1.2900000e-03
551, 1.6666667e-01, 1.2500000e-01, 1.2900000e-03
552, 2.0833333e-01, 1.2500000e-01, 1.2900000e-03
553, 2.5000000e-01, 1.2500000e-01, 1.2900000e-03
554, 2.9166667e-01, 1.2500000e-01, 1.2900000e-03
555, 3.3333333e-01, 1.2500000e-01, 1.2900000e-03
556, 3.7500000e-01, 1.2500000e-01, 1.2900000e-03
557, 4.1666667e-01, 1.2500000e-01, 1.2900000e-03
558, 4.5833333e-01, 1.2500000e-01, 1.2900000e-03
559, 5.0000000e-01, 1.2500000e-01, 1.2900000e-03
560, 0.0000000e+00, 1.6666667e-01, 1.2900000e-03
561, 4.1666667e-02, 1.6666667e-01, 1.2900000e-03
562, 8.3333333e-02, 1.6666667e-01, 1.2900000e-03
563, 1.2500000e-01, 1.6666667e-01, 1.2900000e-03
564, 1.6666667e-01, 1.6666667e-01, 1.2900000e-03
565, 2.0833333e-01, 1.6666667e-01, 1.2900000e-03
566, 2.5000000e-01, 1.6666667e-01, 1.2900000e-03
567, 2.9166667e-01, 1.6666667e-01, 1.2900000e-03
568, 3.3333333e-01, 1.6666667e-01, 1.2900000e-03
569, 3.7500000e-01, 1.6666667e-01, 1.2900000e-03
570, 4.1666667e-01, 1.6666667e-01, 1.2900000e-03
571, 4.5833333e-01, 1.6666667e-01, 1.2900000e-03
572, 5.0000000e-01, 1.6666667e-01, 1.2900000e-03
573, 0.0000000e+00, 2.0833333e-01, 1.2900000e-03
574, 4.1666667e-02, 2.0833333e-01, 1.2900000e-03
575, 8.3333333e-02, 2.0833333e-01, 1.2900000e-03
576, 1.2500000e-01, 2.0833333e-01, 1.2900000e-03
577, 1.6666667e-01, 2.0833333e-01, 1.2900000e-03
578, 2.0833333e-01, 2.0833333e-01, 1.2900000e-03
579, 2.5000000e-01, 2.0833333e-01, 1.2900000e-03
580, 2.9166667e-01, 2.0833333e-01, 1.2900000e-03
581, 3.3333333e-01, 2.0833333e-01, 1.2900000e-03
582, 3.7500000e-01, 2.0833333e-01, 1.2900000e-03
583, 4.1666667e-01, 2.0833333e-01, 1.2900000e-03
584, 4.5833333e-01, 2.0833333e-01, 1.2900000e-03
585, 5.0000000e-01, 2.0833333e-01, 1.2900000e-03
586, 0.0000000e+00, 2.5000000e-01, 1.2900000e-03
587, 4.1666667e-02, 2.5000000e-01, 1.2900000e-03
588, 8.3333333e-02, 2.5000000e-01, 1.2900000e-03
589, 1.2500000e-01, 2.5000000e-01, 1.2900000e-03
590, 1.6666667e-01, 2.5000000e-01, 1.2900000e-03
591, 2.0833333e-01, 2.5000000e-01, 1.2900000e-03
592, 2.5000000e-01, 2.5000000e-01, 1.2900000e-03
593, 2.9166667e-01, 2.5000000e-01, 1.2900000e-03
594, 3.3333333e-01, 2.5000000e-01, 1.2900000e-03
595, 3.7500000e-01, 2.5000000e-01, 1.2900000e-03
596, 4.1666667e-01, 2.5000000e-01, 1.2900000e-03
597, 4.5833333e-01, 2.5000000e-01, 1.2900000e-03
598, 5.0000000e-01, 2.5000000e-01, 1.2900000e-03
599, 0.0000000e+00, 2.9166667e-01, 1.2900000e-03
600, 4.1666667e-02, 2.9166667e-01, 1.2900000e-03
601, 8.3333333e-02, 2.9166667e-01, 1.2900000e-03
602, 1.2500000e-01, 2.9166667e-01, 1.2900000e-03
603, 1.6666667e-01, 2.9166667e-01, 1.2900000e-03
604, 2.0833333e-01, 2.9166667e-01, 1.2900000e-03
605, 2.5000000e-01, 2.9166667e-01, 1.2900000e-03
606, 2.9166667e-01, 2.9166667e-01, 1.2900000e-03
607, 3.3333333e-01, 2.9166667e-01, 1.2900000e-03
608, 3.7500000e-01, 2.9166667e-01, 1.2900000e-03
609, 4.1666667e-01, 2.9166667e-01, 1.2900000e-03
610, 4.5833333e-01, 2.9166667e-01, 1.2900000e-03
611, 5.0000000e-01, 2.9166667e-01, 1.2900000e-03
612, 0.0000000e+00, 3.3333333e-01, 1.2900000e-03
613, 4.1666667e-02, 3.3333333e-01, 1.2900000e-03
614, 8.3333333e-02, 3.3333333e-01, 1.2900000e-03
615, 1.2500000e-01, 3.3333333e-01, 1.2900000e-03
616, 1.6666667e-01, 3.3333333e-01, 1.2900000e-03
617, 2.0833333e-01, 3.3333333e-01, 1.2900000e-03
618, 2.5000000e-01, 3.3333333e-01, 1.2900000e-03
619, 2.9166667e-01, 3.3333333e-01, 1.2900000e-03
620, 3.3333333e-01, 3.3333333e-01, 1.2900000e-03
621, 3.7500000e-01, 3.3333333e-01, 1.2900000e-03
622, 4.1666667e-01, 3.3333333e-01, 1.2900000e-03
623, 4.5833333e-01, 3.3333333e-01, 1.2900000e-03
624, 5.0000000e-01, 3.3333333e-01, 1.2900000e-03
625, 0.0000000e+00, 3.7500000e-01, 1.2900000e-03
626, 4.1666667e-02, 3.7500000e-01, 1.2900000e-03
627, 8.3333333e-02, 3.7500000e-01, 1.2900000e-03
628, 1.2500000e-01, 3.7500000e-01, 1.2900000e-03
629, 1.6666667e-01, 3.7500000e-01, 1.2900000e-03
630, 2.0833333e-01, 3.7500000e-01, 1.2900000e-03
631, 2.5000000e-01, 3.7500000e-01, 1.2900000e-03
632, 2.9166667e-01, 3.7500000e-01, 1.2900000e-03
633, 3.3333333e-01, 3.7500000e-01, 1.2900000e-03
634, 3.7500000e-01, 3.7500000e-01, 1.2900000e-03
635, 4.1666667e-01, 3.7500000e-01, 1.2900000e-03
636, 4.5833333e-01, 3.7500000e-01, 1.2900000e-03
637, 5.0000000e-01, 3.7500000e-01, 1.2900000e-03
638, 0.0000000e+00, 4.1666667e-01, 1.2900000e-03
639, 4.1666667e-02, 4.1666667e-01, 1.2900000e-03
640, 8.3333333e-02, 4.1666667e-01, 1.2900000e-03
641, 1.2500000e-01, 4.1666667e-01, 1.2900000e-03
642, 1.6666667e-01, 4.1666667e-01, 1.2900000e-03
643, 2.0833333e-01, 4.1666667e-01, 1.2900000e-03
644, 2.5000000e-01, 4.1666667e-01, 1.2900000e-03
645, 2.9166667e-01, 4.1666667e-01, 1.2900000e-03
646, 3.3333333e-01, 4.1666667e-01, 1.2900000e-03
647, 3.7500000e-01, 4.1666667e-01, 1.2900000e-03
648, 4.1666667e-01, 4.1666667e-01, 1.2900000e-03
649, 4.5833333e-01, 4.1666667e-01, 1.2900000e-03
650, 5.0000000e-01, 4.1666667e-01, 1.2900000e-03
651, 0.0000000e+00, 4.5833333e-01, 1.2900000e-03
652, 4.1666667e-02, 4.5833333e-01, 1.2900000e-03
653, 8.3333333e-02, 4.5833333e-01, 1.2900000e-03
654, 1.2500000e-01, 4.5833333e-01, 1.2900000e-03
655, 1.6666667e-01, 4.5833333e-01, 1.2900000e-03
656, 2.0833333e-01, 4.5833333e-01, 1.2900000e-03
657, 2.5000000e-01, 4.5833333e-01, 1.2900000e-03
658, 2.9166667e-01, 4.5833333e-01, 1.2900000e-03
659, 3.3333333e-01, 4.5833333e-01, 1.2900000e-03
660, 3.7500000e-01, 4.5833333e-01, 1.2900000e-03
661, 4.1666667e-01, 4.5833333e-01, 1.2900000e-03
662, 4.5833333e-01, 4.5833333e-01, 1.2900000e-03
663, 5.0000000e-01, 4.5833333e-01, 1.2900000e-03
664, 0.0000000e+00, 5.0000000e-01, 1.2900000e-03
665, 4.1666667e-02, 5.0000000e-01, 1.2900000e-03
666, 8.3333333e-02, 5.0000000e-01, 1.2900000e-03
667, 1.2500000e-01, 5.0000000e-01, 1.2900000e-03
668, 1.6666667e-01, 5.0000000e-01, 1.2900000e-03
669, 2.0833333e-01, 5.0000000e-01, 1.2900000e-03
670, 2.5000000e-01, 5.0000000e-01, 1.2900000e-03
671, 2.9166667e-01, 5.0000000e-01, 1.2900000e-03
672, 3.3333333e-01, 5.0000000e-01, 1.2900000e-03
673, 3.7500000e-01, 5.0000000e-01, 1.2900000e-03
674, 4.1666667e-01, 5.0000000e-01, 1.2900000e-03
675, 4.5833333e-01, 5.0000000e-01, 1.2900000e-03
676, 5.0000000e-01, 5.0000000e-01, 1.2900000e-03
677, 0.0000000e+00, 0.0000000e+00, 1.7200000e-03
678, 4.1666667e-02, 0.0000000e+00, 1.7200000e-03
679, 8.3333333e-02, 0.0000000e+00, 1.7200000e-03
680, 1.2500000e-01, 0.0000000e+00, 1.7200000e-03
681, 1.6666667e-01, 0.0000000e+00, 1.7200000e-03
682, 2.0833333e-01, 0.0000000e+00, 1.7200000e-03
683, 2.5000000e-01, 0.0000000e+00, 1.7200000e-03
684, 2.9166667e-01, 0.0000000e+00, 1.7200000e-03
685, 3.3333333e-01, 0.0000000e+00, 1.7200000e-03
686, 3.7500000e-01, 0.0000000e+00, 1.7200000e-03
687, 4.1666667e-01, 0.0000000e+00, 1.7200000e-03
688, 4.5833333e-01, 0.0000000e+00, 1.7200000e-03
689, 5.0000000e-01, 0.0000000e+00, 1.7200000e-03
690, 0.0000000e+00, 4.1666667e-02, 1.7200000e-03
691, 4.1666667e-02, 4.1666667e-02, 1.7200000e-03
692, 8.3333333e-02, 4.1666667e-02, 1.7200000e-03
693, 1.2500000e-01, 4.1666667e-02, 1.7200000e-03
694, 1.6666667e-01, 4.1666667e-02, 1.7200000e-03
695, 2.0833333e-01, 4.1666667e-02, 1.7200000e-03
696, 2.5000000e-01, 4.1666667e-02, 1.7200000e-03
697, 2.9166667e-01, 4.1666667e-02, 1.7200000e-03
698, 3.3333333e-01, 4.1666667e-02, 1.7200000e-03
699, 3.7500000e-01, 4.1666667e-02, 1.7200000e-03
700, 4.1666667e-01, 4.1666667e-02, 1.7200000e-03
701, 4.5833333e-01, 4.1666667e-02, 1.7200000e-03
702, 5.0000000e-01, 4.1666667e-02, 1.7200000e-03
703, 0.0000000e+00, 8.3333333e-02, 1.7200000e-03
704, 4.1666667e-02, 8.3333333e-02, 1.7200000e-03
705, 8.3333333e-02, 8.3333333e-02, 1.7200000e-03
706, 1.2500000e-01, 8.3333333e-02, 1.7200000e-03
707, 1.6666667e-01, 8.3333333e-02, 1.7200000e-03
708, 2.0833333e-01, 8.3333333e-02, 1.7200000e-03
709, 2.5000000e-01, 8.3333333e-02, 1.7200000e-03
710, 2.9166667e-01, 8.3333333e-02, 1.7200000e-03
711, 3.3333333e-01, 8.3333333e-02, 1.7200000e-03
712, 3.7500000e-01, 8.3333333e-02, 1.7200000e-03
713, 4.1666667e-01, 8.3333333e-02, 1.7200000e-03
714, 4.5833333e-01, 8.3333333e-02, 1.7200000e-03
715, 5.0000000e-01, 8.3333333e-02, 1.7200000e-03
716, 0.0000000e+00, 1.2500000e-01, 1.7200000e-03
717, 4.1666667e-02, 1.2500000e-01, 1.7200000e-03
718, 8.3333333e-02, 1.2500000e-01, 1.7200000e-03
719, 1.2500000e-01, 1.2500000e-01, 1.7200000e-03
720, 1.6666667e-01, 1.2500000e-01, 1.7200000e-03
721, 2.0833333e-01, 1.2500000e-01, 1.7200000e-03
722, 2.5000000e-01, 1.2500000e-01, 1.7200000e-03
723, 2.9166667e-01, 1.2500000e-01, 1.7200000e-03
724, 3.3333333e-01, 1.2500000e-01, 1.7200000e-03
725, 3.7500000e-01, 1.2500000e-01, 1.7200000e-03
726, 4.1666667e-01, 1.2500000e-01, 1.7200000e-03
727, 4.5833333e-01, 1.2500000e-01, 1.7200000e-03
728, 5.0000000e-01, 1.2500000e-01, 1.7200000e-03
729, 0.0000000e+00, 1.6666667e-01, 1.7200000e-03
730, 4.1666667e-02, 1.6666667e-01, 1.7200000e-03
731, 8.3333333e-02, 1.6666667e-01, 1.7200000e-03
732, 1.2500000e-01, 1.6666667e-01, 1.7200000e-03
733, 1.6666667e-01, 1.6666667e-01, 1.7200000e-03
734, 2.0833333e-01, 1.6666667e-01, 1.7200000e-03
735, 2.5000000e-01, 1.6666667e-01, 1.7200000e-03
736, 2.9166667e-01, 1.6666667e-01, 1.7200000e-03
737, 3.3333333e-01, 1.6666667e-01, 1.7200000e-03
738, 3.7500000e-01, 1.6666667e-01, 1.7200000e-03
739, 4.1666667e-01, 1.6666667e-01, 1.7200000e-03
740, 4.5833333e-01, 1.6666667e-01, 1.7200000e-03
741, 5.0000000e-01, 1.6666667e-01, 1.7200000e-03
742, 0.0000000e+00, 2.0833333e-01, 1.7200000e-03
743, 4.1666667e-02, 2.0833333e-01, 1.7200000e-03
744, 8.3333333e-02, 2.0833333e-01, 1.7200000e-03
745, 1.2500000e-01, 2.0833333e-01, 1.7200000e-03
746, 1.6666667e-01, 2.0833333e-01, 1.7200000e-03
747, 2.0833333e-01, 2.0833333e-01, 1.7200000e-03
748, 2.5000000e-01, 2.0833333e-01, 1.7200000e-03
749, 2.9166667e-01, 2.0833333e-01, 1.7200000e-03
750, 3.3333333e-01, 2.0833333e-01, 1.7200000e-03
751, 3.7500000e-01, 2.0833333e-01, 1.7200000e-03
752, 4.1666667e-01, 2.0833333e-01, 1.7200000e-03
753, 4.5833333e-01, 2.0833333e-01, 1.7200000e-03
754, 5.0000000e-01, 2.0833333e-01, 1.7200000e-03
755, 0.0000000e+00, 2.5000000e-01, 1.7200000e-03
756, 4.1666667e-02, 2.5000000e-01, 1.7200000e-03
757, 8.3333333e-02, 2.5000000e-01, 1.7200000e-03
758, 1.2500000e-01, 2.5000000e-01, 1.7200000e-03
759, 1.6666667e-01, 2.5000000e-01, 1.7200000e-03
760, 2.0833333e-01, 2.5000000e-01, 1.7200000e-03
761, 2.5000000e-01, 2.5000000e-01, 1.7200000e-03
762, 2.9166667e-01, 2.5000000e-01, 1.7200000e-03
763, 3.3333333e-01, 2.5000000e-01, 1.7200000e-03
764, 3.7500000e-01, 2.5000000e-01, 1.7200000e-03
765, 4.1666667e-01, 2.5000000e-01, 1.7200000e-03
766, 4.5833333e-01, 2.5000000e-01, 1.7200000e-03
767, 5.0000000e-01, 2.5000000e-01, 1.7200000e-03
768, 0.0000000e+00, 2.9166667e-01, 1.7200000e-03
769, 4.1666667e-02, 2.9166667e-01, 1.7200000e-03
770, 8.3333333e-02, 2.9166667e-01, 1.7200000e-03
771, 1.2500000e-01, 2.9166667e-01, 1.7200000e-03
772, 1.6666667e-01, 2.9166667e-01, 1.7200000e-03
773, 2.0833333e-01, 2.9166667e-01, 1.7200000e-03
774, 2.5000000e-01, 2.9166667e-01, 1.7200000e-03
775, 2.9166667e-01, 2.9166667e-01, 1.7200000e-03
776, 3.3333333e-01, 2.9166667e-01, 1.7200000e-03
777, 3.7500000e-01, 2.9166667e-01, 1.7200000e-03
778, 4.1666667e-01, 2.9166667e-01, 1.7200000e-03
779, 4.5833333e-01, 2.9166667e-01, 1.7200000e-03
780, 5.0000000e-01, 2.9166667e-01, 1.7200000e-03
781, 0.0000000e+00, 3.3333333e-01, 1.7200000e-03
782, 4.1666667e-02, 3.3333333e-01, 1.7200000e-03
783, 8.3333333e-02, 3.3333333e-01, 1.7200000e-03
784, 1.2500000e-01, 3.3333333e-01, 1.7200000e-03
785, 1.6666667e-01, 3.3333333e-01, 1.7200000e-03
786, 2.0833333e-01, 3.3333333e-01, 1.7200000e-03
787, 2.5000000e-01, 3.3333333e-01, 1.7200000e-03
788, 2.9166667e-01, 3.3333333e-01, 1.7200000e-03
789, 3.3333333e-01, 3.3333333e-01, 1.7200000e-03
790, 3.7500000e-01, 3.3333333e-01, 1.7200000e-03
791, 4.1666667e-01, 3.3333333e-01, 1.7200000e-03
792, 4.5833333e-01, 3.3333333e-01, 1.7200000e-03
793, 5.0000000e-01, 3.3333333e-01, 1.7200000e-03
794, 0.0000000e+00, 3.7500000e-01, 1.7200000e-03
795, 4.1666667e-02, 3.7500000e-01, 1.7200000e-03
796, 8.3333333e-02, 3.7500000e-01, 1.7200000e-03
797, 1.2500000e-01, 3.7500000e-01, 1.7200000e-03
798, 1.6666667e-01, 3.7500000e-01, 1.7200000e-03
799, 2.0833333e-01, 3.7500000e-01, 1.7200000e-03
800, 2.5000000e-01, 3.7500000e-01, 1.7200000e-03
801, 2.9166667e-01, 3.7500000e-01, 1.7200000e-03
802, 3.3333333e-01, 3.7500000e-01, 1.7200000e-03
803, 3.7500000e-01, 3.7500000e-01, 1.7200000e-03
804, 4.1666667e-01, 3.7500000e-01, 1.7200000e-03
805, 4.5833333e-01, 3.7500000e-01, 1.7200000e-03
806, 5.0000000e-01, 3.7500000e-01, 1.7200000e-03
807, 0.0000000e+00, 4.1666667e-01, 1.7200000e-03
808, 4.1666667e-02, 4.1666667e-01, 1.7200000e-03
809, 8.3333333e-02, 4.1666667e-01, 1.7200000e-03
810, 1.2500000e-01, 4.1666667e-01, 1.7200000e-03
811, 1.6666667e-01, 4.1666667e-01, 1.7200000e-03
812, 2.0833333e-01, 4.1666667e-01, 1.7200000e-03
813, 2.5000000e-01, 4.1666667e-01, 1.7200000e-03
814, 2.9166667e-01, 4.1666667e-01, 1.7200000e-03
815, 3.3333333e-01, 4.1666667e-01, 1.7200000e-03
816, 3.7500000e-01, 4.1666667e-01, 1.7200000e-03
817, 4.1666667e-01, 4.1666667e-01, 1.7200000e-03
818, 4.5833333e-01, 4.1666667e-01, 1.7200000e-03
819, 5.0000000e-01, 4.1666667e-01, 1.7200000e-03
820, 0.0000000e+00, 4.5833333e-01, 1.7200000e-03
821, 4.1666667e-02, 4.5833333e-01, 1.7200000e-03
822, 8.3333333e-02, 4.5833333e-01, 1.7200000e-03
823, 1.2500000e-01, 4.5833333e-01, 1.7200000e-03
824, 1.6666667e-01, 4.5833333e-01, 1.7200000e-03
825, 2.0833333e-01, 4.5833333e-01, 1.7200000e-03
826, 2.5000000e-01, 4.5833333e-01, 1.7200000e-03
827, 2.9166667e-01, 4.5833333e-01, 1.7200000e-03
828, 3.3333333e-01, 4.5833333e-01, 1.7200000e-03
829, 3.7500000e-01, 4.5833333e-01, 1.7200000e-03
830, 4.1666667e-01, 4.5833333e-01, 1.7200000e-03
831, 4.5833333e-01, 4.5833333e-01, 1.7200000e-03
832, 5.0000000e-01, 4.5833333e-01, 1.7200000e-03
833, 0.0000000e+00, 5.0000000e-01, 1.7200000e-03
834, 4.1666667e-02, 5.0000000e-01, 1.7200000e-03
835, 8.3333333e-02, 5.0000000e-01, 1.7200000e-03
836, 1.2500000e-01, 5.0000000e-01, 1.7200000e-03
837, 1.6666667e-01, 5.0000000e-01, 1.7200000e-03
838, 2.0833333e-01, 5.0000000e-01, 1.7200000e-03
839, 2.5000000e-01, 5.0000000e-01, 1.7200000e-03
840, 2.9166667e-01, 5.0000000e-01, 1.7200000e-03
841, 3.3333333e-01, 5.0000000e-01, 1.7200000e-03
842, 3.7500000e-01, 5.0000000e-01, 1.7200000e-03
843, 4.1666667e-01, 5.0000000e-01, 1.7200000e-03
844, 4.5833333e-01, 5.0000000e-01, 1.7200000e-03
845, 5.0000000e-01, 5.0000000e-01, 1.7200000e-03
*Element, type=C3D8R
1, 1, 2, 15, 14, 170, 171, 184, 183
2, 2, 3, 16, 15, 171, 172, 185, 184
3, 3, 4, 17, 16, 172, 173, 186, 185
4, 4, 5, 18, 17, 173, 174, 187, 186
5, 5, 6, 19, 18, 174, 175, 188, 187
6, 6, 7, 20, 19, 175, 176, 189, 188
7, 7, 8, 21, 20, 176, 177, 190, 189
8, 8, 9, 22, 21, 177, 178, 191, 190
9, 9, 10, 23, 22, 178, 179, 192, 191
10, 10, 11, 24, 23, 179, 180, 193, 192
11, 11, 12, 25, 24, 180, 181, 194, 193
12, 12, 13, 26, 25, 181, 182, 195, 194
13, 14, 15, 28, 27, 183, 184, 197, 196
14, 15, 16, 29, 28, 184, 185, 198, 197
15, 16, 17, 30, 29, 185, 186, 199, 198
16, 17, 18, 31, 30, 186, 187, 200, 199
17, 18, 19, 32, 31, 187, 188, 201, 200
18, 19, 20, 33, 32, 188, 189, 202, 201
19, 20, 21, 34, 33, 189, 190, 203, 202
20, 21, 22, 35, 34, 190, 191, 204, 203
21, 22, 23, 36, 35, 191, 192, 205, 204
22, 23, 24, 37, 36, 192, 193, 206, 205
23, 24, 25, 38, 37, 193, 194, 207, 206
24, 25, 26, 39, 38, 194, 195, 208, 207
25, 27, 28, 41, 40, 196, 197, 210, 209
26, 28, 29, 42, 41, 197, 198, 211, 210
27, 29, 30, 43, 42, 198, 199, 212, 211
28, 30, 31, 44, 43, 199, 200, 213, 212
29, 31, 32, 45, 44, 200, 201, 214, 213
30, 32, 33, 46, 45, 201, 202, 215, 214
31, 33, 34, 47, 46, 202, 203, 216, 215
32, 34, 35, 48, 47, 203, 204, 217, 216
33, 35, 36, 49, 48, 204, 205, 218, 217
34, 36, 37, 50, 49, 205, 206, 219, 218
35, 37, 38, 51, 50, 206, 207, 220, 219
36, 38, 39, 52, 51, 207, 208, 221, 220
37, 40, 41, 54, 53, 209, 210, 223, 222
38, 41, 42, 55, 54, 210, 211, 224, 223
39, 42, 43, 56, 55, 211, 212, 225, 224
40, 43, 44, 57, 56, 212, 213, 226, 225
41, 44, 45, 58, 57, 213, 214, 227, 226
42, 45, 46, 59, 58, 214, 215, 228, 227
43, 46, 47, 60, 59, 215, 216, 229, 228
44, 47, 48, 61, 60, 216, 217, 230, 229
45, 48, 49, 62, 61, 217, 218, 231, 230
46, 49, 50, 63, 62, 218, 219, 232, 231
47, 50, 51, 64, 63, 219, 220, 233, 232
48, 51, 52, 65, 64, 220, 221, 234, 233
49, 53, 54, 67, 66, 222, 223, 236, 235
50, 54, 55, 68, 67, 223, 224, 237, 236
51, 55, 56, 69, 68, 224, 225, 238, 237
52, 56, 57, 70, 69, 225, 226, 239, 238
53, 57, 58, 71, 70, 226, 227, 240, 239
54, 58, 59, 72, 71, 227, 228, 241, 240
55, 59, 60, 73, 72, 228, 229, 242, 241
56, 60, 61, 74, 73, 229, 230, 243, 242
57, 61, 62, 75, 74, 230, 231, 244, 243
58, 62, 63, 76, 75, 231, 232, 245, 244
59, 63, 64, 77, 76, 232, 233, 246, 245
60, 64, 65, 78, 77, 233, 234, 247, 246
61, 66, 67, 80, 79, 235, 236, 249, 248
62, 67, 68, 81, 80, 236, 237, 250, 249
63, 68, 69, 82, 81, 237, 238, 251, 250
64, 69, 70, 83, 82, 238, 239, 252, 251
65, 70, 71, 84, 83, 239, 240, 253, 252
66, 71, 72, 85, 84, 240, 241, 254, 253
67, 72, 73, 86, 85, 241, 242, 255, 254
68, 73, 74, 87, 86, 242, 243, 256, 255
69, 74, 75, 88, 87, 243, 244, 257, 256
70, 75, 76, 89, 88, 244, 245, 258, 257
71, 76, 77, 90, 89, 245, 246, 259, 258
72, 77, 78, 91, 90, 246, 247, 260, 259
73, 79, 80, 93, 92, 248, 249, 262, 261
74, 80, 81, 94, 93, 249, 250, 263, 262
75, 81, 82, 95, 94, 250, 251, 264, 263
76, 82, 83, 96, 95, 251, 252, 265, 264
77, 83, 84, 97, 96, 252, 253, 266, 265
78, 84, 85, 98, 97, 253, 254, 267, 266
79, 85, 86, 99, 98, 254, 255, 268, 267
80, 86, 87, 100, 99, 255, 256, 269, 268
81, 87, 88, 101, 100, 256, 257, 270, 269
82, 88, 89, 102, 101, 257, 258, 271, 270
83, 89, 90, 103, 102, 258, 259, 272, 271
84, 90, 91, 104, 103, 259, 260, 273, 272
85, 92, 93, 106, 105, 261, 262, 275, 274
86, 93, 94, 107, 106, 262, 263, 276, 275
87, 94, 95, 108, 107, 263, 264, 277, 276
88, 95, 96, 109, 108, 264, 265, 278, 277
89, 96, 97, 110, 109, 265, 266, 279, 278
90, 97, 98, 111, 110, 266, 267, 280, 279
91, 98, 99, 112, 111, 267, 268, 281, 280
92, 99, 100, 113, 112, 268, 269, 282, 281
93, 100, 101, 114, 113, 269, 270, 283, 282
94, 101, 102, 115, 114, 270, 271, 284, 283
95, 102, 103, 116, 115, 271, 272, 285, 284
96, 103, 104, 117, 116, 272, 273, 286, 285
97, 105, 106, 119, 118, 274, 275, 288, 287
98, 106, 107, 120, 119, 275, 276, 289, 288
99, 107, 108, 121, 120, 276, 277, 290, 289
100, 108, 109, 122, 121, 277, 278, 291, 290
101, 109, 110, 123, 122, 278, 279, 292, 291
102, 110, 111, 124, 123, 279, 280, 293, 292
103, 111, 112, 125, 124, 280, 281, 294, 293
104, 112, 113, 126, 125, 281, 282, 295, 294
105, 113, 114, 127, 126, 282, 283, 296, 295
106, 114, 115, 128, 127, 283, 284, 297, 296
107, 115, 116, 129, 128, 284, 285, 298, 297
108, 116, 117, 130, 129, 285, 286, 299, 298
109, 118, 119, 132, 131, 287, 288, 301, 300
110, 119, 120, 133, 132, 288, 289, 302, 301
111, 120, 121, 134, 133, 289, 290, 303, 302
112, 121, 122, 135, 134, 290, 291, 304, 303
113, 122, 123, 136, 135, 291, 292, 305, 304
114, 123, 124, 137, 136, 292, 293, 306, 305
115, 124, 125, 138, 137, 293, 294, 307, 306
116, 125, 126, 139, 138, 294, 295, 308, 307
117, 126, 127, 140, 139, 295, 296, 309, 308
118, 127, 128, 141, 140, 296, 297, 310, 309
119, 128, 129, 142, 141, 297, 298, 311, 310
120, 129, 130, 143, 142, 298, 299, 312, 311
121, 131, 132, 145, 144, 300, 301, 314, 313
122, 132, 133, 146, 145, 301, 302, 315, 314
123, 133, 134, 147, 146, 302, 303, 316, 315
124, 134, 135, 148, 147, 303, 304, 317, 316
125, 135, 136, 149, 148, 304, 305, 318, 317
126, 136, 137, 150, 149, 305, 306, 319, 318
127, 137, 138, 151, 150, 306, 307, 320, 319
128, 138, 139, 152, 151, 307, 308, 321, 320
129, 139, 140, 153, 152, 308, 309, 322, 321
130, 140, 141, 154, 153, 309, 310, 323, 322
131, 141, 142, 155, 154, 310, 311, 324, 323
132, 142, 143, 156, 155, 311, 312, 325, 324
133, 144, 145, 158, 157, 313, 314, 327, 326
134, 145, 146, 159, 158, 314, 315, 328, 327
135, 146, 147, 160, 159, 315, 316, 329, 328
136, 147, 148, 161, 160, 316, 317, 330, 329
137, 148, 149, 162, 161, 317, 318, 331, 330
138, 149, 150, 163, 162, 318, 319, 332, 331
139, 150, 151, 164, 163, 319, 320, 333, 332
140, 151, 152, 165, 164, 320, 321, 334, 333
141, 152, 153, 166, 165, 321, 322, 335, 334
142, 153, 154, 167, 166, 322, 323, 336, 335
143, 154, 155, 168, 167, 323, 324, 337, 336
144, 155, 156, 169, 168, 324, 325, 338, 337
145, 170, 171, 184, 183, 339, 340, 353, 352
146, 171, 172, 185, 184, 340, 341, 354, 353
147, 172, 173, 186, 185, 341, 342, 355, 354
148, 173, 174, 187, 186, 342, 343, 356, 355
149, 174, 175, 188, 187, 343, 344, 357, 356
150, 175, 176, 189, 188, 344, 345, 358, 357
151, 176, 177, 190, 189, 345, 346, 359, 358
152, 177, 178, 191, 190, 346, 347, 360, 359
153, 178, 179, 192, 191, 347, 348, 361, 360
154, 179, 180, 193, 192, 348, 349, 362, 361
155, 180, 181, 194, 193, 349, 350, 363, 362
156, 181, 182, 195, 194, 350, 351, 364, 363
157, 183, 184, 197, 196, 352, 353, 366, 365
158, 184, 185, 198, 197, 353, 354, 367, 366
159, 185, 186, 199, 198, 354, 355, 368, 367
160, 186, 187, 200, 199, 355, 356, 369, 368
161, 187, 188, 201, 200, 356, 357, 370, 369
162, 188, 189, 202, 201, 357, 358, 371, 370
163, 189, 190, 203, 202, 358, 359, 372, 371
164, 190, 191, 204, 203, 359, 360, 373, 372
165, 191, 192, 205, 204, 360, 361, 374, 373
166, 192, 193, 206, 205, 361, 362, 375, 374
167, 193, 194, 207, 206, 362, 363, 376, 375
168, 194, 195, 208, 207, 363, 364, 377, 376
169, 196, 197, 210, 209, 365, 366, 379, 378
170, 197, 198, 211, 210, 366, 367, 380, 379
171, 198, 199, 212, 211, 367, 368, 381, 380
172, 199, 200, 213, 212, 368, 369, 382, 381
173, 200, 201, 214, 213, 369, 370, 383, 382
174, 201, 202, 215, 214, 370, 371, 384, 383
175, 202, 203, 216, 215, 371, 372, 385, 384
176, 203, 204, 217, 216, 372, 373, 386, 385
177, 204, 205, 218, 217, 373, 374, 387, 386
178, 205, 206, 219, 218, 374, 375, 388, 387
179, 206, 207, 220, 219, 375, 376, 389, 388
180, 207, 208, 221, 220, 376, 377, 390, 389
181, 209, 210, 223, 222, 378, 379, 392, 391
182, 210, 211, 224, 223, 379, 380, 393, 392
183, 211, 212, 225, 224, 380, 381, 394, 393
184, 212, 213, 226, 225, 381, 382, 395, 394
185, 213, 214, 227, 226, 382, 383, 396, 395
186, 214, 215, 228, 227, 383, 384, 397, 396
187, 215, 216, 229, 228, 384, 385, 398, 397
188, 216, 217, 230, 229, 385, 386, 399, 398
189, 217, 218, 231, 230, 386, 387, 400, 399
190, 218, 219, 232, 231, 387, 388, 401, 400
191, 219, 220, 233, 232, 388, 389, 402, 401
192, 220, 221, 234, 233, 389, 390, 403, 402
193, 222, 223, 236, 235, 391, 392, 405, 404
194, 223, 224, 237, 236, 392, 393, 406, 405
195, 224, 225, 238, 237, 393, 394, 407, 406
196, 225, 226, 239, 238, 394, 395, 408, 407
197, 226, 227, 240, 239, 395, 396, 409, 408
198, 227, 228, 241, 240, 396, 397, 410, 409
199, 228, 229, 242, 241, 397, 398, 411, 410
200, 229, 230, 243, 242, 398, 399, 412, 411
201, 230, 231, 244, 243, 399, 400, 413, 412
202, 231, 232, 245, 244, 400, 401, 414, 413
203, 232, 233, 246, 245, 401, 402, 415, 414
204, 233, 234, 247, 246, 402, 403, 416, 415
205, 235, 236, 249, 248, 404, 405, 418, 417
206, 236, 237, 250, 249, 405, 406, 419, 418
207, 237, 238, 251, 250, 406, 407, 420, 419
208, 238, 239, 252, 251, 407, 408, 421, 420
209, 239, 240, 253, 252, 408, 409, 422, 421
210, 240, 241, 254, 253, 409, 410, 423, 422
211, 241, 242, 255, 254, 410, 411, 424, 423
212, 242, 243, 256, 255, 411, 412, 425, 424
213, 243, 244, 257, 256, 412, 413, 426, 425
214, 244, 245, 258, 257, 413, 414, 427, 426
215, 245, 246, 259, 258, 414, 415, 428, 427
216, 246, 247, 260, 259, 415, 416, 429, 428
217, 248, 249, 262, 261, 417, 418, 431, 430
218, 249, 250, 263, 262, 418, 419, 432, 431
219, 250, 251, 264, 263, 419, 420, 433, 432
220, 251, 252, 265, 264, 420, 421, 434, 433
221, 252, 253, 266, 265, 421, 422, 435, 434
222, 253, 254, 267, 266, 422, 423, 436, 435
223, 254, 255, 268, 267, 423, 424, 437, 436
224, 255, 256, 269, 268, 424, 425, 438, 437
225, 256, 257, 270, 269, 425, 426, 439, 438
226, 257, 258, 271, 270, 426, 427, 440, 439
227, 258, 259, 272, 271, 427, 428, 441, 440
228, 259, 260, 273, 272, 428, 429, 442, 441
229, 261, 262, 275, 274, 430, 431, 444, 443
230, 262, 263, 276, 275, 431, 432, 445, 444
231, 263, 264, 277, 276, 432, 433, 446, 445
232, 264, 265, 278, 277, 433, 434, 447, 446
233, 265, 266, 279, 278, 434, 435, 448, 447
234, 266, 267, 280, 279, 435, 436, 449, 448
235, 267, 268, 281, 280, 436, 437, 450, 449
236, 268, 269, 282, 281, 437, 438, 451, 450
237, 269, 270, 283, 282, 438, 439, 452, 451
238, 270, 271, 284, 283, 439, 440, 453, 452
239, 271, 272, 285, 284, 440, 441, 454, 453
240, 272, 273, 286, 285, 441, 442, 455, 454
241, 274, 275, 288, 287, 443, 444, 457, 456
242, 275, 276, 289, 288, 444, 445, 458, 457
243, 276, 277, 290, 289, 445, 446, 459, 458
244, 277, 278, 291, 290, 446, 447, 460, 459
245, 278, 279, 292, 291, 447, 448, 461, 460
246, 279, 280, 293, 292, 448, 449, 462, 461
247, 280, 281, 294, 293, 449, 450, 463, 462
248, 281, 282, 295, 294, 450, 451, 464, 463
249, 282, 283, 296, 295, 451, 452, 465, 464
250, 283, 284, 297, 296, 452, 453, 466, 465
251, 284, 285, 298, 297, 453, 454, 467, 466
252, 285, 286, 299, 298, 454, 455, 468, 467
253, 287, 288, 301, 300, 456, 457, 470, 469
254, 288, 289, 302, 301, 457, 458, 471, 470
255, 289, 290, 303, 302, 458, 459, 472, 471
256, 290, 291, 304, 303, 459, 460, 473, 472
257, 291, 292, 305, 304, 460, 461, 474, 473
258, 292, 293, 306, 305, 461, 462, 475, 474
259, 293, 294, 307, 306, 462, 463, 476, 475
260, 294, 295, 308, 307, 463, 464, 477, 476
261, 295, 296, 309, 308, 464, 465, 478, 477
262, 296, 297, 310, 309, 465, 466, 479, 478
263, 297, 298, 311, 310, 466, 467, 480, 479
264, 298, 299, 312, 311, 467, 468, 481, 480
265, 300, 301, 314, 313, 469, 470, 483, 482
266, 301, 302, 315, 314, 470, 471, 484, 483
267, 302, 303, 316, 315, 471, 472, 485, 484
268, 303, 304, 317, 316, 472, 473, 486, 485
269, 304, 305, 318, 317, 473, 474, 487, 486
270, 305, 306, 319, 318, 474, 475, 488, 487
271, 306, 307, 320, 319, 475, 476, 489, 488
272, 307, 308, 321, 320, 476, 477, 490, 489
273, 308, 309, 322, 321, 477, 478, 491, 490
274, 309, 310, 323, 322, 478, 479, 492, 491
275, 310, 311, 324, 323, 479, 480, 493, 492
276, 311, 312, 325, 324, 480, 481, 494, 493
277, 313, 314, 327, 326, 482, 483, 496, 495
278, 314, 315, 328, 327, 483, 484, 497, 496
279, 315, 316, 329, 328, 484, 485, 498, 497
280, 316, 317, 330, 329, 485, 486, 499, 498
281, 317, 318, 331, 330, 486, 487, 500, 499
282, 318, 319, 332, 331, 487, 488, 501, 500
283, 319, 320, 333, 332, 488, 489, 502, 501
284, 320, 321, 334, 333, 489, 490, 503, 502
285, 321, 322, 335, 334, 490, 491, 504, 503
286, 322, 323, 336, 335, 491, 492, 505, 504
287, 323, 324, 337, 336, 492, 493, 506, 505
288, 324, 325, 338, 337, 493, 494, 507, 506
289, 339, 340, 353, 352, 508, 509, 522, 521
290, 340, 341, 354, 353, 509, 510, 523, 522
291, 341, 342, 355, 354, 510, 511, 524, 523
292, 342, 343, 356, 355, 511, 512, 525, 524
293, 343, 344, 357, 356, 512, 513, 526, 525
294, 344, 345, 358, 357, 513, 514, 527, 526
295, 345, 346, 359, 358, 514, 515, 528, 527
296, 346, 347, 360, 359, 515, 516, 529, 528
297, 347, 348, 361, 360, 516, 517, 530, 529
298, 348, 349, 362, 361, 517, 518, 531, 530
299, 349, 350, 363, 362, 518, 519, 532, 531
300, 350, 351, 364, 363, 519, 520, 533, 532
301, 352, 353, 366, 365, 521, 522, 535, 534
302, 353, 354, 367, 366, 522, 523, 536, 535
303, 354, 355, 368, 367, 523, 524, 537, 536
304, 355, 356, 369, 368, 524, 525, 538, 537
305, 356, 357, 370, 369, 525, 526, 539, 538
306, 357, 358, 371, 370, 526, 527, 540, 539
307, 358, 359, 372, 371, 527, 528, 541, 540
308, 359, 360, 373, 372, 528, 529, 542, 541
309, 360, 361, 374, 373, 529, 530, 543, 542
310, 361, 362, 375, 374, 530, 531, 544, 543
311, 362, 363, 376, 375, 531, 532, 545, 544
312, 363, 364, 377, 376, 532, 533, 546, 545
313, 365, 366, 379, 378, 534, 535, 548, 547
314, 366, 367, 380, 379, 535, 536, 549, 548
315, 367, 368, 381, 380, 536, 537, 550, 549
316, 368, 369, 382, 381, 537, 538, 551, 550
317, 369, 370, 383, 382, 538, 539, 552, 551
318, 370, 371, 384, 383, 539, 540, 553, 552
319, 371, 372, 385, 384, 540, 541, 554, 553
320, 372, 373, 386, 385, 541, 542, 555, 554
321, 373, 374, 387, 386, 542, 543, 556, 555
322, 374, 375, 388, 387, 543, 544, 557, 556
323, 375, 376, 389, 388, 544, 545, 558, 557
324, 376, 377, 390, 389, 545, 546, 559, 558
325, 378, 379, 392, 391, 547, 548, 561, 560
326, 379, 380, 393, 392, 548, 549, 562, 561
327, 380, 381, 394, 393, 549, 550, 563, 562
328, 381, 382, 395, 394, 550, 551, 564, 563
329, 382, 383, 396, 395, 551, 552, 565, 564
330, 383, 384, 397, 396, 552, 553, 566, 565
331, 384, 385, 398, 397, 553, 554, 567, 566
332, 385, 386, 399, 398, 554, 555, 568, 567
333, 386, 387, 400, 399, 555, 556, 569, 568
334, 387, 388, 401, 400, 556, 557, 570, 569
335, 388, 389, 402, 401, 557, 558, 571, 570
336, 389, 390, 403, 402, 558, 559, 572, 571
337, 391, 392, 405, 404, 560, 561, 574, 573
338, 392, 393, 406, 405, 561, 562, 575, 574
339, 393, 394, 407, 406, 562, 563, 576, 575
340, 394, 395, 408, 407, 563, 564, 577, 576
341, 395, 396, 409, 408, 564, 565, 578, 577
342, 396, 397, 410, 409, 565, 566, 579, 578
343, 397, 398, 411, 410, 566, 567, 580, 579
344, 398, 399, 412, 411, 567, 568, 581, 580
345, 399, 400, 413, 412, 568, 569, 582, 581
346, 400, 401, 414, 413, 569, 570, 583, 582
347, 401, 402, 415, 414, 570, 571, 584, 583
348, 402, 403, 416, 415, 571, 572, 585, 584
349, 404, 405, 418, 417, 573, 574, 587, 586
350, 405, 406, 419, 418, 574, 575, 588, 587
351, 406, 407, 420, 419, 575, 576, 589, 588
352, 407, 408, 421, 420, 576, 577, 590, 589
353, 408, 409, 422, 421, 577, 578, 591, 590
354, 409, 410, 423, 422, 578, 579, 592, 591
355, 410, 411, 424, 423, 579, 580, 593, 592
356, 411, 412, 425, 424, 580, 581, 594, 593
357, 412, 413, 426, 425, 581, 582, 595, 594
358, 413, 414, 427, 426, 582, 583, 596, 595
359, 414, 415, 428, 427, 583, 584, 597, 596
360, 415, 416, 429, 428, 584, 585, 598, 597
361, 417, 418, 431, 430, 586, 587, 600, 599
362, 418, 419, 432, 431, 587, 588, 601, 600
363, 419, 420, 433, 432, 588, 589, 602, 601
364, 420, 421, 434, 433, 589, 590, 603, 602
365, 421, 422, 435, 434, 590, 591, 604, 603
366, 422, 423, 436, 435, 591, 592, 605, 604
367, 423, 424, 437, 436, 592, 593, 606, 605
368, 424, 425, 438, 437, 593, 594, 607, 606
369, 425, 426, 439, 438, 594, 595, 608, 607
370, 426, 427, 440, 439, 595, 596, 609, 608
371, 427, 428, 441, 440, 596, 597, 610, 609
372, 428, 429, 442, 441, 597, 598, 611, 610
373, 430, 431, 444, 443, 599, 600, 613, 612
374, 431, 432, 445, 444, 600, 601, 614, 613
375, 432, 433, 446, 445, 601, 602, 615, 614
376, 433, 434, 447, 446, 602, 603, 616, 615
377, 434, 435, 448, 447, 603, 604, 617, 616
378, 435, 436, 449, 448, 604, 605, 618, 617
379, 436, 437, 450, 449, 605, 606, 619, 618
380, 437, 438, 451, 450, 606, 607, 620, 619
381, 438, 439, 452, 451, 607, 608, 621, 620
382, 439, 440, 453, 452, 608, 609, 622, 621
383, 440, 441, 454, 453, 609, 610, 623, 622
384, 441, 442, 455, 454, 610, 611, 624, 623
385, 443, 444, 457, 456, 612, 613, 626, 625
386, 444, 445, 458, 457, 613, 614, 627, 626
387, 445, 446, 459, 458, 614, 615, 628, 627
388, 446, 447, 460, 459, 615, 616, 629, 628
389, 447, 448, 461, 460, 616, 617, 630, 629
390, 448, 449, 462, 461, 617, 618, 631, 630
391, 449, 450, 463, 462, 618, 619, 632, 631
392, 450, 451, 464, 463, 619, 620, 633, 632
393, 451, 452, 465, 464, 620, 621, 634, 633
394, 452, 453, 466, 465, 621, 622, 635, 634
395, 453, 454, 467, 466, 622, 623, 636, 635
396, 454, 455, 468, 467, 623, 624, 637, 636
397, 456, 457, 470, 469, 625, 626, 639, 638
398, 457, 458, 471, 470, 626, 627, 640, 639
399, 458, 459, 472, 471, 627, 628, 641, 640
400, 459, 460, 473, 472, 628, 629, 642, 641
401, 460, 461, 474, 473, 629, 630, 643, 642
402, 461, 462, 475, 474, 630, 631, 644, 643
403, 462, 463, 476, 475, 631, 632, 645, 644
404, 463, 464, 477, 476, 632, 633, 646, 645
405, 464, 465, 478, 477, 633, 634, 647, 646
406, 465, 466, 479, 478, 634, 635, 648, 647
407, 466, 467, 480, 479, 635, 636, 649, 648
408, 467, 468, 481, 480, 636, 637, 650, 649
409, 469, 470, 483, 482, 638, 639, 652, 651
410, 470, 471, 484, 483, 639, 640, 653, 652
411, 471, 472, 485, 484, 640, 641, 654, 653
412, 472, 473, 486, 485, 641, 642, 655, 654
413, 473, 474, 487, 486, 642, 643, 656, 655
414, 474, 475, 488, 487, 643, 644, 657, 656
415, 475, 476, 489, 488, 644, 645, 658, 657
416, 476, 477, 490, 489, 645, 646, 659, 658
417, 477, 478, 491, 490, 646, 647, 660, 659
418, 478, 479, 492, 491, 647, 648, 661, 660
419, 479, 480, 493, 492, 648, 649, 662, 661
420, 480, 481, 494, 493, 649, 650, 663, 662
421, 482, 483, 496, 495, 651, 652, 665, 664
422, 483, 484, 497, 496, 652, 653, 666, 665
423, 484, 485, 498, 497, 653, 654, 667, 666
424, 485, 486, 499, 498, 654, 655, 668, 667
425, 486, 487, 500, 499, 655, 656, 669, 668
426, 487, 488, 501, 500, 656, 657, 670, 669
427, 488, 489, 502, 501, 657, 658, 671, 670
428, 489, 490, 503, 502, 658, 659, 672, 671
429, 490, 491, 504, 503, 659, 660, 673, 672
430, 491, 492, 505, 504, 660, 661, 674, 673
431, 492, 493, 506, 505, 661, 662, 675, 674
432, 493, 494, 507, 506, 662, 663, 676, 675
433, 508, 509, 522, 521, 677, 678, 691, 690
434, 509, 510, 523, 522, 678, 679, 692, 691
435, 510, 511, 524, 523, 679, 680, 693, 692
436, 511, 512, 525, 524, 680, 681, 694, 693
437, 512, 513, 526, 525, 681, 682, 695, 694
438, 513, 514, 527, 526, 682, 683, 696, 695
439, 514, 515, 528, 527, 683, 684, 697, 696
440, 515, 516, 529, 528, 684, 685, 698, 697
441, 516, 517, 530, 529, 685, 686, 699, 698
442, 517, 518, 531, 530, 686, 687, 700, 699
443, 518, 519, 532, 531, 687, 688, 701, 700
444, 519, 520, 533, 532, 688, 689, 702, 701
445, 521, 522, 535, 534, 690, 691, 704, 703
446, 522, 523, 536, 535, 691, 692, 705, 704
447, 523, 524, 537, 536, 692, 693, 706, 705
448, 524, 525, 538, 537, 693, 694, 707, 706
449, 525, 526, 539, 538, 694, 695, 708, 707
450, 526, 527, 540, 539, 695, 696, 709, 708
451, 527, 528, 541, 540, 696, 697, 710, 709
452, 528, 529, 542, 541, 697, 698, 711, 710
453, 529, 530, 543, 542, 698, 699, 712, 711
454, 530, 531, 544, 543, 699, 700, 713, 712
455, 531, 532, 545, 544, 700, 701, 714, 713
456, 532, 533, 546, 545, 701, 702, 715, 714
457, 534, 535, 548, 547, 703, 704, 717, 716
458, 535, 536, 549, 548, 704, 705, 718, 717
459, 536, 537, 550, 549, 705, 706, 719, 718
460, 537, 538, 551, 550, 706, 707, 720, 719
461, 538, 539, 552, 551, 707, 708, 721, 720
462, 539, 540, 553, 552, 708, 709, 722, 721
463, 540, 541, 554, 553, 709, 710, 723, 722
464, 541, 542, 555, 554, 710, 711, 724, 723
465, 542, 543, 556, 555, 711, 712, 725, 724
466, 543, 544, 557, 556, 712, 713, 726, 725
467, 544, 545, 558, 557, 713, 714, 727, 726
468, 545, 546, 559, 558, 714, 715, 728, 727
469, 547, 548, 561, 560, 716, 717, 730, 729
470, 548, 549, 562, 561, 717, 718, 731, 730
471, 549, 550, 563, 562, 718, 719, 732, 731
472, 550, 551, 564, 563, 719, 720, 733, 732
473, 551, 552, 565, 564, 720, 721, 734, 733
474, 552, 553, 566, 565, 721, 722, 735, 734
475, 553, 554, 567, 566, 722, 723, 736, 735
476, 554, 555, 568, 567, 723, 724, 737, 736
477, 555, 556, 569, 568, 724, 725, 738, 737
478, 556, 557, 570, 569, 725, 726, 739, 738
479, 557, 558, 571, 570, 726, 727, 740, 739
480, 558, 559, 572, 571, 727, 728, 741, 740
481, 560, 561, 574, 573, 729, 730, 743, 742
482, 561, 562, 575, 574, 730, 731, 744, 743
483, 562, 563, 576, 575, 731, 732, 745, 744
484, 563, 564, 577, 576, 732, 733, 746, 745
485, 564, 565, 578, 577, 733, 734, 747, 746
486, 565, 566, 579, 578, 734, 735, 748, 747
487, 566, 567, 580, 579, 735, 736, 749, 748
488, 567, 568, 581, 580, 736, 737, 750, 749
489, 568, 569, 582, 581, 737, 738, 751, 750
490, 569, 570, 583, 582, 738, 739, 752, 751
491, 570, 571, 584, 583, 739, 740, 753, 752
492, 571, 572, 585, 584, 740, 741, 754, 753
493, 573, 574, 587, 586, 742, 743, 756, 755
494, 574, 575, 588, 587, 743, 744, 757, 756
495, 575, 576, 589, 588, 744, 745, 758, 757
496, 576, 577, 590, 589, 745, 746, 759, 758
497, 577, 578, 591, 590, 746, 747, 760, 759
498, 578, 579, 592, 591, 747, 748, 761, 760
499, 579, 580, 593, 592, 748, 749, 762, 761
500, 580, 581, 594, 593, 749, 750, 763, 762
501, 581, 582, 595, 594, 750, 751, 764, 763
502, 582, 583, 596, 595, 751, 752, 765, 764
503, 583, 584, 597, 596, 752, 753, 766, 765
504, 584, 585, 598, 597, 753, 754, 767, 766
505, 586, 587, 600, 599, 755, 756, 769, 768
506, 587, 588, 601, 600, 756, 757, 770, 769
507, 588, 589, 602, 601, 757, 758, 771, 770
508, 589, 590, 603, 602, 758, 759, 772, 771
509, 590, 591, 604, 603, 759, 760, 773, 772
510, 591, 592, 605, 604, 760, 761, 774, 773
511, 592, 593, 606, 605, 761, 762, 775, 774
512, 593, 594, 607, 606, 762, 763, 776, 775
513, 594, 595, 608, 607, 763, 764, 777, 776
514, 595, 596, 609, 608, 764, 765, 778, 777
515, 596, 597, 610, 609, 765, 766, 779, 778
516, 597, 598, 611, 610, 766, 767, 780, 779
517, 599, 600, 613, 612, 768, 769, 782, 781
518, 600, 601, 614, 613, 769, 770, 783, 782
519, 601, 602, 615, 614, 770, 771, 784, 783
520, 602, 603, 616, 615, 771, 772, 785, 784
521, 603, 604, 617, 616, 772, 773, 786, 785
522, 604, 605, 618, 617, 773, 774, 787, 786
523, 605, 606, 619, 618, 774, 775, 788, 787
524, 606, 607, 620, 619, 775, 776, 789, 788
525, 607, 608, 621, 620, 776, 777, 790, 789
526, 608, 609, 622, 621, 777, 778, 791, 790
527, 609, 610, 623, 622, 778, 779, 792, 791
528, 610, 611, 624, 623, 779, 780, 793, 792
529, 612, 613, 626, 625, 781, 782, 795, 794
530, 613, 614, 627, 626, 782, 783, 796, 795
531, 614, 615, 628, 627, 783, 784, 797, 796
532, 615, 616, 629, 628, 784, 785, 798, 797
533, 616, 617, 630, 629, 785, 786, 799, 798
534, 617, 618, 631, 630, 786, 787, 800, 799
535, 618, 619, 632, 631, 787, 788, 801, 800
536, 619, 620, 633, 632, 788, 789, 802, 801
537, 620, 621, 634, 633, 789, 790, 803, 802
538, 621, 622, 635, 634, 790, 791, 804, 803
539, 622, 623, 636, 635, 791, 792, 805, 804
540, 623, 624, 637, 636, 792, 793, 806, 805
541, 625, 626, 639, 638, 794, 795, 808, 807
542, 626, 627, 640, 639, 795, 796, 809, 808
543, 627, 628, 641, 640, 796, 797, 810, 809
544, 628, 629, 642, 641, 797, 798, 811, 810
545, 629, 630, 643, 642, 798, 799, 812, 811
546, 630, 631, 644, 643, 799, 800, 813, 812
547, 631, 632, 645, 644, 800, 801, 814, 813
548, 632, 633, 646, 645, 801, 802, 815, 814
549, 633, 634, 647, 646, 802, 803, 816, 815
550, 634, 635, 648, 647, 803, 804, 817, 816
551, 635, 636, 649, 648, 804, 805, 818, 817
552, 636, 637, 650, 649, 805, 806, 819, 818
553, 638, 639, 652, 651, 807, 808, 821, 820
554, 639, 640, 653, 652, 808, 809, 822, 821
555, 640, 641, 654, 653, 809, 810, 823, 822
556, 641, 642, 655, 654, 810, 811, 824, 823
557, 642, 643, 656, 655, 811, 812, 825, 824
558, 643, 644, 657, 656, 812, 813, 826, 825
559, 644, 645, 658, 657, 813, 814, 827, 826
560, 645, 646, 659, 658, 814, 815, 828, 827
561, 646, 647, 660, 659, 815, 816, 829, 828
562, 647, 648, 661, 660, 816, 817, 830, 829
563, 648, 649, 662, 661, 817, 818, 831, 830
564, 649, 650, 663, 662, 818, 819, 832, 831
565, 651, 652, 665, 664, 820, 821, 834, 833
566, 652, 653, 666, 665, 821, 822, 835, 834
567, 653, 654, 667, 666, 822, 823, 836, 835
568, 654, 655, 668, 667, 823, 824, 837, 836
569, 655, 656, 669, 668, 824, 825, 838, 837
570, 656, 657, 670, 669, 825, 826, 839, 838
571, 657, 658, 671, 670, 826, 827, 840, 839
572, 658, 659, 672, 671, 827, 828, 841, 840
573, 659, 660, 673, 672, 828, 829, 842, 841
574, 660, 661, 674, 673, 829, 830, 843, 842
575, 661, 662, 675, 674, 830, 831, 844, 843
576, 662, 663, 676, 675, 831, 832, 845, 844
*Elset, elset=ALL, generate
1, 576, 1
**
*Solid Section, elset=ALL, material=CFRP
,
*End Part
**
*Material, name=CFRP
*Density
1570.000,
*Elastic, type=ENGINEERING CONSTANTS
1.281000e+11, 8.200000e+09, 8.200000e+09, 2.700000e-01, 2.700000e-01, 2.000000e-01, 4.700000e+09, 4.700000e+09,
3.440000e+09,
**
*Assembly, name=Assembly
*Instance, name=PLATE-1, part=Part-1
*End Instance
*Nset, nset=RECV, instance=PLATE-1
759, 763,
*End Assembly
**
** Five-cycle Hann burst at 100 kHz, sampled every 0.5 us, peak 1.
*Amplitude, name=HANN, time=TOTAL TIME
0.0000000e+00, 0.0000000e+00, 5.0000000e-07, 3.1238192e-04, 1.0000000e-06, 2.3743979e-03, 1.5000000e-06, 7.3410856e-03
2.0000000e-06, 1.5306838e-02, 2.5000000e-06, 2.5073303e-02, 3.0000000e-06, 3.4214134e-02, 3.5000000e-06, 3.9444625e-02
4.0000000e-06, 3.7246168e-02, 4.5000000e-06, 2.4643918e-02, 5.0000000e-06, 1.1981805e-17, 5.5000000e-06, -3.6329269e-02
6.0000000e-06, -8.1612169e-02, 6.5000000e-06, -1.3074011e-01, 7.0000000e-06, -1.7665342e-01, 7.5000000e-06, -2.1117388e-01
8.0000000e-06, -2.2615337e-01, 8.5000000e-06, -2.1478826e-01, 9.0000000e-06, -1.7290765e-01, 9.5000000e-06, -1.0003006e-01
1.0000000e-05, -8.6701155e-17, 1.0500000e-05, 1.1893735e-01, 1.1000000e-05, 2.4469335e-01, 1.1500000e-05, 3.6250745e-01
1.2000000e-05, 4.5662498e-01, 1.2500000e-05, 5.1229093e-01, 1.3000000e-05, 5.1781028e-01, 1.3500000e-05, 4.6639669e-01
1.4000000e-05, 3.5754077e-01, 1.4500000e-05, 1.9767586e-01, 1.5000000e-05, 2.4637354e-16, 1.5500000e-05, -2.1658315e-01
1.6000000e-05, -4.2932646e-01, 1.6500000e-05, -6.1411588e-01, 1.7000000e-05, -7.4828189e-01, 1.7500000e-05, -8.1340799e-01
1.8000000e-05, -7.9778184e-01, 1.8500000e-05, -6.9816404e-01, 1.9000000e-05, -5.2062194e-01, 1.9500000e-05, -2.8028394e-01
2.0000000e-05, -4.5397314e-16, 2.0500000e-05, 2.9196929e-01, 2.1000000e-05, 5.6498794e-01, 2.1500000e-05, 7.8945952e-01
2.2000000e-05, 9.4022113e-01, 2.2500000e-05, 9.9950856e-01, 2.3000000e-05, 9.5912842e-01, 2.3500000e-05, 8.2156306e-01
2.4000000e-05, 5.9985971e-01, 2.4500000e-05, 3.1630083e-01, 2.5000000e-05, 6.2737545e-16, 2.5500000e-05, -3.1630083e-01
2.6000000e-05, -5.9985971e-01, 2.6500000e-05, -8.2156306e-01, 2.7000000e-05, -9.5912842e-01, 2.7500000e-05, -9.9950856e-01
2.8000000e-05, -9.4022113e-01, 2.8500000e-05, -7.8945952e-01, 2.9000000e-05, -5.6498794e-01, 2.9500000e-05, -2.9196929e-01
3.0000000e-05, -6.8095971e-16, 3.0500000e-05, 2.8028394e-01, 3.1000000e-05, 5.2062194e-01, 3.1500000e-05, 6.9816404e-01
3.2000000e-05, 7.9778184e-01, 3.2500000e-05, 8.1340799e-01, 3.3000000e-05, 7.4828189e-01, 3.3500000e-05, 6.1411588e-01
3.4000000e-05, 4.2932646e-01, 3.4500000e-05, 2.1658315e-01, 3.5000000e-05, 5.7487159e-16, 3.5500000e-05, -1.9767586e-01
3.6000000e-05, -3.5754077e-01, 3.6500000e-05, -4.6639669e-01, 3.7000000e-05, -5.1781028e-01, 3.7500000e-05, -5.1229093e-01
3.8000000e-05, -4.5662498e-01, 3.8500000e-05, -3.6250745e-01, 3.9000000e-05, -2.4469335e-01, 3.9500000e-05, -1.1893735e-01
4.0000000e-05, -3.4680462e-16, 4.0500000e-05, 1.0003006e-01, 4.1000000e-05, 1.7290765e-01, 4.1500000e-05, 2.1478826e-01
4.2000000e-05, 2.2615337e-01, 4.2500000e-05, 2.1117388e-01, 4.3000000e-05, 1.7665342e-01, 4.3500000e-05, 1.3074011e-01
4.4000000e-05, 8.1612169e-02, 4.4500000e-05, 3.6329269e-02, 4.5000000e-05, 1.0783624e-16, 4.5500000e-05, -2.4643918e-02
4.6000000e-05, -3.7246168e-02, 4.6500000e-05, -3.9444625e-02, 4.7000000e-05, -3.4214134e-02, 4.7500000e-05, -2.5073303e-02
4.8000000e-05, -1.5306838e-02, 4.8500000e-05, -7.3410856e-03, 4.9000000e-05, -2.3743979e-03, 4.9500000e-05, -3.1238192e-04
5.0000000e-05, -1.8818249e-47
**
*Step, name=WAVE, nlgeom=NO
*Dynamic, Explicit
, 2.2000000e-04
*Bulk Viscosity
0.06, 1.2
**
** Loads are applied per node; the amplitude times the terminal value
** gives 1 N per metre of width for the line source, matching the
** in-house model. No boundary conditions: a free plate is admissible
** in explicit dynamics and it is what the reference model solves.
*Cload, amplitude=HANN
679, 3, 4.1666667e-02
692, 3, 4.1666667e-02
705, 3, 4.1666667e-02
718, 3, 4.1666667e-02
731, 3, 4.1666667e-02
744, 3, 4.1666667e-02
757, 3, 4.1666667e-02
770, 3, 4.1666667e-02
783, 3, 4.1666667e-02
796, 3, 4.1666667e-02
809, 3, 4.1666667e-02
822, 3, 4.1666667e-02
835, 3, 4.1666667e-02
3, 3, 4.1666667e-02
16, 3, 4.1666667e-02
29, 3, 4.1666667e-02
42, 3, 4.1666667e-02
55, 3, 4.1666667e-02
68, 3, 4.1666667e-02
81, 3, 4.1666667e-02
94, 3, 4.1666667e-02
107, 3, 4.1666667e-02
120, 3, 4.1666667e-02
133, 3, 4.1666667e-02
146, 3, 4.1666667e-02
159, 3, 4.1666667e-02
**
*Output, field, number interval=110
*Node Output
U, V
*Output, history, time interval=1.0000000e-06
*Node Output, nset=RECV
U3
*End Step
