*Heading
** Capability test: does Hashin damage initiation + energy evolution work with a
** 3D solid continuum element (C3D8) in Abaqus/Explicit? Keep this outside the model
** chain; it exists only to answer that question on this release.
*Preprint, echo=NO, model=NO, history=NO, contact=NO
*Node
1, 0., 0., 0.
2, 1e-3, 0., 0.
3, 1e-3, 1e-3, 0.
4, 0., 1e-3, 0.
5, 0., 0., 5e-4
6, 1e-3, 0., 5e-4
7, 1e-3, 1e-3, 5e-4
8, 0., 1e-3, 5e-4
*Element, type=C3D8
1, 1, 2, 3, 4, 5, 6, 7, 8
*Elset, elset=ALL
1,
*Solid Section, elset=ALL, material=CFRP
,
*Material, name=CFRP
*Density
1570.,
*Elastic, type=ENGINEERING CONSTANTS
1.281e11, 8.2e9, 8.2e9, 0.27, 0.27, 0.20, 4.7e9, 4.7e9
3.44e9,
*Damage Initiation, criterion=HASHIN
1.5e9, 1.2e9, 5.0e7, 2.0e8, 7.0e7, 7.0e7
*Damage Evolution, type=ENERGY
9.0e4, 9.0e4, 5.0e2, 1.0e3
*Step, name=S1, nlgeom=NO
*Dynamic, Explicit
, 1e-6
*Output, field
*Node Output
U
*End Step
