*HEADING
Cantilever, C3D8I, eigenfrequency
*NODE
1, 0.00000000e+00, 0.00000000e+00, 0.00000000e+00
2, 5.00000000e-02, 0.00000000e+00, 0.00000000e+00
3, 1.00000000e-01, 0.00000000e+00, 0.00000000e+00
4, 1.50000000e-01, 0.00000000e+00, 0.00000000e+00
5, 2.00000000e-01, 0.00000000e+00, 0.00000000e+00
6, 2.50000000e-01, 0.00000000e+00, 0.00000000e+00
7, 3.00000000e-01, 0.00000000e+00, 0.00000000e+00
8, 3.50000000e-01, 0.00000000e+00, 0.00000000e+00
9, 4.00000000e-01, 0.00000000e+00, 0.00000000e+00
10, 4.50000000e-01, 0.00000000e+00, 0.00000000e+00
11, 5.00000000e-01, 0.00000000e+00, 0.00000000e+00
12, 5.50000000e-01, 0.00000000e+00, 0.00000000e+00
13, 6.00000000e-01, 0.00000000e+00, 0.00000000e+00
14, 6.50000000e-01, 0.00000000e+00, 0.00000000e+00
15, 7.00000000e-01, 0.00000000e+00, 0.00000000e+00
16, 7.50000000e-01, 0.00000000e+00, 0.00000000e+00
17, 8.00000000e-01, 0.00000000e+00, 0.00000000e+00
18, 8.50000000e-01, 0.00000000e+00, 0.00000000e+00
19, 9.00000000e-01, 0.00000000e+00, 0.00000000e+00
20, 9.50000000e-01, 0.00000000e+00, 0.00000000e+00
21, 1.00000000e+00, 0.00000000e+00, 0.00000000e+00
22, 0.00000000e+00, 1.00000000e-01, 0.00000000e+00
23, 5.00000000e-02, 1.00000000e-01, 0.00000000e+00
24, 1.00000000e-01, 1.00000000e-01, 0.00000000e+00
25, 1.50000000e-01, 1.00000000e-01, 0.00000000e+00
26, 2.00000000e-01, 1.00000000e-01, 0.00000000e+00
27, 2.50000000e-01, 1.00000000e-01, 0.00000000e+00
28, 3.00000000e-01, 1.00000000e-01, 0.00000000e+00
29, 3.50000000e-01, 1.00000000e-01, 0.00000000e+00
30, 4.00000000e-01, 1.00000000e-01, 0.00000000e+00
31, 4.50000000e-01, 1.00000000e-01, 0.00000000e+00
32, 5.00000000e-01, 1.00000000e-01, 0.00000000e+00
33, 5.50000000e-01, 1.00000000e-01, 0.00000000e+00
34, 6.00000000e-01, 1.00000000e-01, 0.00000000e+00
35, 6.50000000e-01, 1.00000000e-01, 0.00000000e+00
36, 7.00000000e-01, 1.00000000e-01, 0.00000000e+00
37, 7.50000000e-01, 1.00000000e-01, 0.00000000e+00
38, 8.00000000e-01, 1.00000000e-01, 0.00000000e+00
39, 8.50000000e-01, 1.00000000e-01, 0.00000000e+00
40, 9.00000000e-01, 1.00000000e-01, 0.00000000e+00
41, 9.50000000e-01, 1.00000000e-01, 0.00000000e+00
42, 1.00000000e+00, 1.00000000e-01, 0.00000000e+00
43, 0.00000000e+00, 0.00000000e+00, 1.00000000e-01
44, 5.00000000e-02, 0.00000000e+00, 1.00000000e-01
45, 1.00000000e-01, 0.00000000e+00, 1.00000000e-01
46, 1.50000000e-01, 0.00000000e+00, 1.00000000e-01
47, 2.00000000e-01, 0.00000000e+00, 1.00000000e-01
48, 2.50000000e-01, 0.00000000e+00, 1.00000000e-01
49, 3.00000000e-01, 0.00000000e+00, 1.00000000e-01
50, 3.50000000e-01, 0.00000000e+00, 1.00000000e-01
51, 4.00000000e-01, 0.00000000e+00, 1.00000000e-01
52, 4.50000000e-01, 0.00000000e+00, 1.00000000e-01
53, 5.00000000e-01, 0.00000000e+00, 1.00000000e-01
54, 5.50000000e-01, 0.00000000e+00, 1.00000000e-01
55, 6.00000000e-01, 0.00000000e+00, 1.00000000e-01
56, 6.50000000e-01, 0.00000000e+00, 1.00000000e-01
57, 7.00000000e-01, 0.00000000e+00, 1.00000000e-01
58, 7.50000000e-01, 0.00000000e+00, 1.00000000e-01
59, 8.00000000e-01, 0.00000000e+00, 1.00000000e-01
60, 8.50000000e-01, 0.00000000e+00, 1.00000000e-01
61, 9.00000000e-01, 0.00000000e+00, 1.00000000e-01
62, 9.50000000e-01, 0.00000000e+00, 1.00000000e-01
63, 1.00000000e+00, 0.00000000e+00, 1.00000000e-01
64, 0.00000000e+00, 1.00000000e-01, 1.00000000e-01
65, 5.00000000e-02, 1.00000000e-01, 1.00000000e-01
66, 1.00000000e-01, 1.00000000e-01, 1.00000000e-01
67, 1.50000000e-01, 1.00000000e-01, 1.00000000e-01
68, 2.00000000e-01, 1.00000000e-01, 1.00000000e-01
69, 2.50000000e-01, 1.00000000e-01, 1.00000000e-01
70, 3.00000000e-01, 1.00000000e-01, 1.00000000e-01
71, 3.50000000e-01, 1.00000000e-01, 1.00000000e-01
72, 4.00000000e-01, 1.00000000e-01, 1.00000000e-01
73, 4.50000000e-01, 1.00000000e-01, 1.00000000e-01
74, 5.00000000e-01, 1.00000000e-01, 1.00000000e-01
75, 5.50000000e-01, 1.00000000e-01, 1.00000000e-01
76, 6.00000000e-01, 1.00000000e-01, 1.00000000e-01
77, 6.50000000e-01, 1.00000000e-01, 1.00000000e-01
78, 7.00000000e-01, 1.00000000e-01, 1.00000000e-01
79, 7.50000000e-01, 1.00000000e-01, 1.00000000e-01
80, 8.00000000e-01, 1.00000000e-01, 1.00000000e-01
81, 8.50000000e-01, 1.00000000e-01, 1.00000000e-01
82, 9.00000000e-01, 1.00000000e-01, 1.00000000e-01
83, 9.50000000e-01, 1.00000000e-01, 1.00000000e-01
84, 1.00000000e+00, 1.00000000e-01, 1.00000000e-01
*ELEMENT, TYPE=C3D8I, ELSET=EALL
1, 1, 2, 23, 22, 43, 44, 65, 64
2, 2, 3, 24, 23, 44, 45, 66, 65
3, 3, 4, 25, 24, 45, 46, 67, 66
4, 4, 5, 26, 25, 46, 47, 68, 67
5, 5, 6, 27, 26, 47, 48, 69, 68
6, 6, 7, 28, 27, 48, 49, 70, 69
7, 7, 8, 29, 28, 49, 50, 71, 70
8, 8, 9, 30, 29, 50, 51, 72, 71
9, 9, 10, 31, 30, 51, 52, 73, 72
10, 10, 11, 32, 31, 52, 53, 74, 73
11, 11, 12, 33, 32, 53, 54, 75, 74
12, 12, 13, 34, 33, 54, 55, 76, 75
13, 13, 14, 35, 34, 55, 56, 77, 76
14, 14, 15, 36, 35, 56, 57, 78, 77
15, 15, 16, 37, 36, 57, 58, 79, 78
16, 16, 17, 38, 37, 58, 59, 80, 79
17, 17, 18, 39, 38, 59, 60, 81, 80
18, 18, 19, 40, 39, 60, 61, 82, 81
19, 19, 20, 41, 40, 61, 62, 83, 82
20, 20, 21, 42, 41, 62, 63, 84, 83
*MATERIAL, NAME=S
*ELASTIC
200000000000.0, 0.30
*DENSITY
7850.0
*SOLID SECTION, ELSET=EALL, MATERIAL=S
*STEP
*FREQUENCY
2
*BOUNDARY
1, 1, 3
22, 1, 3
43, 1, 3
64, 1, 3
*NODE FILE
U
*END STEP
