*Heading
** surface cohesive check, generated by check_surface_cohesive.py
*Preprint, echo=NO, model=NO, history=NO, contact=NO
*Node
1, 0., 0., 0.
2, 1.25e-3, 0., 0.
3, 1.25e-3, 1.25e-3, 0.
4, 0., 1.25e-3, 0.
5, 0., 0., 2.5e-4
6, 1.25e-3, 0., 2.5e-4
7, 1.25e-3, 1.25e-3, 2.5e-4
8, 0., 1.25e-3, 2.5e-4
9, 0., 0., 2.5e-4
10, 1.25e-3, 0., 2.5e-4
11, 1.25e-3, 1.25e-3, 2.5e-4
12, 0., 1.25e-3, 2.5e-4
13, 0., 0., 5.0e-4
14, 1.25e-3, 0., 5.0e-4
15, 1.25e-3, 1.25e-3, 5.0e-4
16, 0., 1.25e-3, 5.0e-4
*Nset, nset=BASE
1, 2, 3, 4
*Nset, nset=DRIVEN
13, 14, 15, 16
*Elset, elset=LOWER
1,
*Elset, elset=UPPER
2,
*Orientation, name=Fibre
1., 0., 0., 0., 1., 0.
3, 0.
*Element, type=C3D8
1, 1, 2, 3, 4, 5, 6, 7, 8
2, 5, 6, 7, 8, 13, 14, 15, 16
*Solid Section, elset=LOWER, material=PLY, orientation=Fibre
,
*Solid Section, elset=UPPER, material=PLY, orientation=Fibre
,
*Material, name=PLY
*Density
1650.,
*Elastic, type=ENGINEERING CONSTANTS
1.281e11, 8.2e9, 8.2e9, 0.27, 0.27, 0.20, 4.7e9, 4.7e9
3.44e9,
*Step, name=S1, nlgeom=NO
*Dynamic, Explicit
, 2e-4
*Boundary, amplitude=RAMP
DRIVEN, 1, 1, 1.0e-4
*Boundary
DRIVEN, 3, 3, 0.
BASE, ENCASTRE
*Output, history
*Node Output, nset=DRIVEN
RF1
*Output, field, frequency=10
*Node Output
U
*Element Output
S
*End Step
*Amplitude, name=RAMP
0., 0., 2e-4, 1.
