*Heading
** Repeat-drop state continuation
*Restart, read, step=2
*Amplitude, name=acc_n02_prepare_ON, time=STEP TIME
0, 1
1, 1
*Amplitude, name=acc_n02_prepare_OFF, time=STEP TIME
0, 0
1, 0
*Amplitude, name=acc_n02_prepare_POS, time=STEP TIME, definition=SMOOTH STEP
0, 0.00299999979325
0.0001, 0.00040740743495
*Amplitude, name=acc_n02_prepare_VEL, time=STEP TIME
0, 0
5e-05, -12.296297398
*Step, name=acc_n02_prepare_POSITION, nlgeom=NO
*Dynamic, Explicit
, 0.0001
*Bulk Viscosity
0.06, 1.2
*Field, variable=1, amplitude=acc_n02_prepare_ON
PLATENODES, 1.
*Boundary, op=NEW
FRAME, ENCASTRE
*Boundary, op=NEW, amplitude=acc_n02_prepare_POS
BALLREF, 3, 3, 1.
*Output, field, op=NEW, number interval=10
*Node Output
U, V
*Element Output
S
*Contact Output
CSTRESS, CDISP, CSDMG
*Output, history, op=NEW, time interval=5e-07
*Node Output, nset=BALLREF
U3, V3
*Node Output, nset=TOPCENTRE
U3
*Energy Output
ALLKE, ALLIE, ALLSE, ALLAE, ALLDMD, ALLPD, ALLWK, ETOTAL, ALLVD, ALLFD, ALLCW, ALLPW
*Restart, write, number interval=1
*End Step
*Step, name=acc_n02_prepare_LAUNCH, nlgeom=NO
*Dynamic, Explicit
, 5e-05
*Bulk Viscosity
0.06, 1.2
*Field, variable=1, amplitude=acc_n02_prepare_OFF
PLATENODES, 1.
*Boundary, op=NEW
FRAME, ENCASTRE
*Boundary, op=NEW, type=VELOCITY, amplitude=acc_n02_prepare_VEL
BALLREF, 3, 3, 1.
*Output, field, op=NEW, number interval=10
*Node Output
U, V
*Element Output
S
*Contact Output
CSTRESS, CDISP, CSDMG
*Output, history, op=NEW, time interval=5e-07
*Node Output, nset=BALLREF
U3, V3
*Node Output, nset=TOPCENTRE
U3
*Energy Output
ALLKE, ALLIE, ALLSE, ALLAE, ALLDMD, ALLPD, ALLWK, ETOTAL, ALLVD, ALLFD, ALLCW, ALLPW
*Restart, write, number interval=1
*End Step
