*Heading
** cohesive check, generated by check_cohesive_degradation.py
*Preprint, echo=NO, model=NO, history=NO, contact=NO
*Node
1, 0., 0., 0.
2, 1e-3, 0., 0.
3, 1e-3, 1e-3, 0.
4, 0., 1e-3, 0.
5, 0., 0., 5.0e-4
6, 1e-3, 0., 5.0e-4
7, 1e-3, 1e-3, 5.0e-4
8, 0., 1e-3, 5.0e-4
9, 0., 0., 5.1e-4
10, 1e-3, 0., 5.1e-4
11, 1e-3, 1e-3, 5.1e-4
12, 0., 1e-3, 5.1e-4
13, 0., 0., 1.01e-3
14, 1e-3, 0., 1.01e-3
15, 1e-3, 1e-3, 1.01e-3
16, 0., 1e-3, 1.01e-3
*Nset, nset=BASE
1, 2, 3, 4
*Nset, nset=DRIVEN
13, 14, 15, 16
*Elset, elset=SOLID
1, 3
*Elset, elset=MIDDLE
2,
** three elements stacked through the thickness: solid / interface / solid
*Element, type=C3D8
1, 1, 2, 3, 4, 5, 6, 7, 8
3, 9, 10, 11, 12, 13, 14, 15, 16
*Element, type=COH3D8
2, 5, 6, 7, 8, 9, 10, 11, 12
*Orientation, name=Fibre
1., 0., 0., 0., 1., 0.
3, 0.
*Section Controls, name=SC, max degradation=1.0
*Cohesive Section, elset=MIDDLE, material=IFACE, response=TRACTION SEPARATION, controls=SC
1.0,
*Solid Section, elset=SOLID, material=CFRP, orientation=Fibre
,
*Material, name=CFRP
*Density
1570.,
*Elastic, type=ENGINEERING CONSTANTS
1.281e11, 8.2e9, 8.2e9, 0.27, 0.27, 0.20, 4.7e9, 4.7e9
3.44e9,
*Material, name=IFACE
*Density
1570.,
*Elastic, type=TRACTION
1e14, 1e14, 1e14
*Damage Initiation, criterion=QUADS
30e6, 30e6, 30e6
*Damage Evolution, type=ENERGY, mixed mode behavior=BK, power=2.0
1.0e3, 1.0e3, 1.0e3
*Step, name=S1, nlgeom=NO
*Dynamic, Explicit
, 2e-4
*Boundary, amplitude=RAMP
DRIVEN, 1, 1, 1.2e-4
*Boundary
BASE, ENCASTRE
*Output, history
*Node Output, nset=DRIVEN
RF1
*Output, field, frequency=10
*Node Output
U
*Element Output
S, SDEG
*End Step
*Amplitude, name=RAMP
0., 0., 2e-4, 1.
